     512
 Properties=species:S:1:pos:R:3:velocities:R:3:forces:R:3:local_energy:R:1:fix_atoms:S:3 Lattice="23.9002720922       0.0000000000    0.0000000000    0.0000000000   18.8679137154    0.0000000000    0.0000000000    0.0000000000   25.9015317200" temperature=1.05570634 pressure=-949.30763960 time_step=1.0000 time=1000.000000 energy=-4685.659607 energy_soap=-3809.82067984  energy_2b=-607.69400504 energy_3b=-141.20912959 energy_core_pot=-44.30896135 energy_vdw=0.00000000 energy_exp=0.00000000 energy_xps=0.00000000 virial="-3.45733429           1.67715612      2.15009941      1.67715612     -8.68707031     -0.74546731      2.15009941     -0.74546731     -8.75709766" stress="0.00029600           -0.00014359     -0.00018408     -0.00014359      0.00074374      0.00006382     -0.00018408      0.00006382      0.00074974" volume=11680.250961 step=1000
 C             22.98300752       1.76614912       7.45133649      -0.00022759      -0.00002115       0.00005119       0.00557374       0.00126873       0.00552769      -9.28957764 F F F
 C             20.77989269       6.25315503      10.97786799       0.00044344       0.00020058       0.00029159       0.01084936      -0.01210809      -0.00516038      -9.30885916 F F F
 C              6.12022975      18.34299325      21.45250749      -0.00010618      -0.00003580      -0.00025097       0.01082695       0.00423202       0.00745297      -9.24406451 F F F
 C             16.30895976       7.89362754      17.17843818      -0.00008893       0.00016660      -0.00019896       0.00450928       0.00552534       0.01330330      -8.93689957 F F F
 C             13.17035735       6.96385366       4.25060634       0.00035539       0.00009860      -0.00026950      -0.00500835      -0.00857764      -0.00941339      -9.26028394 F F F
 C             17.06527619       6.15246288       5.94800838      -0.00026408      -0.00041020       0.00038332      -0.01871683      -0.02109606       0.02615442      -9.27084798 F F F
 C             19.14293891      11.07758082      19.63986514      -0.00003759      -0.00024795       0.00043821       0.00257643       0.02189806       0.00189225      -9.24371307 F F F
 C              1.48263229      18.53714108      19.62250862      -0.00004340       0.00030650       0.00014599      -0.01312294      -0.00729935       0.04750344      -9.14428585 F F F
 C             19.74380203      15.24645491      14.72126439      -0.00013448      -0.00034239       0.00025264       0.00174252      -0.00227156      -0.00267518      -9.18302335 F F F
 C             19.21699227      16.49946400      14.86204537      -0.00011051      -0.00035621       0.00047125       0.00252081      -0.00503539      -0.00880738      -9.09541329 F F F
 C              0.72714580      16.14639097      18.52011757      -0.00023907      -0.00009600      -0.00009481      -0.02893403      -0.00727244       0.02832509      -9.18365377 F F F
 C             15.43170618      13.24217861      10.77301110       0.00017147       0.00017237      -0.00022240      -0.00163908      -0.00540180       0.00727655      -9.30135202 F F F
 C             23.34611495       0.20407638      18.37020483       0.00028456      -0.00004169       0.00003055       0.02391235       0.01272369      -0.02367356      -9.07993192 F F F
 C             17.27049849       8.25727054      20.60602386      -0.00050170       0.00073169       0.00026083       0.04423091      -0.06159460      -0.00629545      -7.89627004 F F F
 C             15.16675638       8.49073496      17.80757245      -0.00006283       0.00005404      -0.00007313       0.00789507       0.00634548       0.01147410      -9.00825439 F F F
 C             16.55010583       0.02281162      15.08311566       0.00023632       0.00026526      -0.00033775       0.01402665      -0.01467721      -0.00274890      -9.01751037 F F F
 C              0.22611592      17.40579405       0.37033133       0.00024938       0.00031004      -0.00023881       0.00305753      -0.00458250       0.03147788      -9.18039107 F F F
 C             15.62981065      13.18401167      20.65823984       0.00015447       0.00026562      -0.00033675      -0.02149338      -0.00562340      -0.00946557      -9.13000911 F F F
 C              3.65085777      16.98360071       9.43105169       0.00022539       0.00091620      -0.00027418       0.00217080       0.03525750       0.00674380      -9.15165837 F F F
 C              5.71269408      10.71400042      19.91934506      -0.00020918       0.00016348      -0.00042138      -0.00513689      -0.00145828      -0.01226271      -9.11722636 F F F
 C              9.85772917       0.45557516      23.30461760      -0.00055485      -0.00017160       0.00040169       0.00849142      -0.00323334       0.00099584      -9.02151332 F F F
 C              5.75331211       2.35690089      18.89467800       0.00002825       0.00038664      -0.00026310       0.00397664      -0.04530007       0.04242041      -8.96676006 F F F
 C             19.62782194      14.62021526      22.08965362       0.00010271       0.00010895      -0.00019086      -0.01589448       0.01238260       0.01333276      -9.03059613 F F F
 C             19.37087425      13.38054239      21.38381088      -0.00002315      -0.00008207       0.00029506      -0.02966014       0.02194979       0.01248615      -9.15412940 F F F
 C              4.45416608       2.35619750      18.32416740       0.00003488       0.00036839      -0.00019375       0.02306539      -0.01363064      -0.00508035      -8.92309516 F F F
 C              1.47515430       3.70028508      15.70689699      -0.00042574      -0.00039935       0.00044506      -0.01266382      -0.00918428      -0.01081122      -9.28080682 F F F
 C             20.45188013      12.37217787      21.26339530      -0.00015938      -0.00036888       0.00065287      -0.00879759       0.02454741       0.01076143      -9.28958515 F F F
 C             17.48249688       9.65809153       9.73728301       0.00015181       0.00000054      -0.00051052      -0.00191811      -0.02030893       0.00301183      -9.29471835 F F F
 C              2.67157957      18.29594170      11.30665374      -0.00053638      -0.00010710      -0.00028539       0.00443275       0.07788109      -0.01484368      -9.18648753 F F F
 C              3.63549959       7.57804195      25.42176822      -0.00003032       0.00023353       0.00000129       0.01200391      -0.01244413      -0.02950383      -9.05585882 F F F
 C              6.86019705       2.44643845      24.00171342      -0.00011769       0.00066469      -0.00044002      -0.01362636       0.00689228       0.00648816      -9.02995471 F F F
 C              2.91501615      13.54220284       1.75005351       0.00003147      -0.00008953      -0.00003998       0.00726197      -0.02879461      -0.03391295      -9.17166621 F F F
 C             17.89973883       3.90588199       2.98518581       0.00041569       0.00007227      -0.00008644      -0.02051701      -0.02211938       0.01618131      -9.13542210 F F F
 C             23.06897892       1.37465107       6.09831918      -0.00008836      -0.00006921       0.00005224      -0.00296928      -0.00995783       0.01265731      -9.31681942 F F F
 C              0.02811531      12.56139111      23.84162674       0.00037903      -0.00000764      -0.00019126       0.01106750       0.00884090      -0.00488129      -9.31659485 F F F
 C             19.59730875      13.06727032      13.72084702      -0.00044190      -0.00037987       0.00035986       0.00222133       0.00375858       0.00449766      -9.28347185 F F F
 C             14.17808864      10.27094740      19.06584525      -0.00008138      -0.00022258       0.00033936       0.00286453      -0.00334970      -0.00906885      -9.04537970 F F F
 C             12.63454995       4.07102215       1.94338659       0.00023797      -0.00017184       0.00006365      -0.03317207      -0.01465945       0.01983560      -9.32043870 F F F
 C              3.88906341       3.64533644      18.50828548       0.00047512       0.00057465      -0.00070111       0.03515193      -0.01479060      -0.04344420      -8.94786433 F F F
 C             20.76706868      17.09761465      22.91901786       0.00020544      -0.00001266      -0.00047600       0.00155699      -0.03055655       0.03329436      -8.74589898 F F F
 C             19.12561831       4.75709621       6.36784748      -0.00014690      -0.00023568       0.00043110       0.01297321       0.02288522       0.01828648      -9.24180104 F F F
 C             22.17355673       1.95417192       5.13742455       0.00002338       0.00004845       0.00016246      -0.01235995      -0.00971149       0.02136925      -9.30032410 F F F
 C             18.76294100       2.68772587       1.16428933       0.00017206      -0.00054328       0.00032024       0.00905600       0.00547261      -0.00577664      -9.02288481 F F F
 C             13.32995228       4.97836526       2.79354356       0.00024060      -0.00056139       0.00047510      -0.02496585       0.00128904      -0.00590112      -9.26121410 F F F
 C             16.65897929       2.07995699       0.10316039       0.00011903      -0.00002018      -0.00016141       0.00052027      -0.02858397       0.02885938      -9.15156605 F F F
 C              6.46277895       1.78902053      22.79941351      -0.00026884      -0.00014495       0.00005446      -0.02023822       0.00093943       0.01948939      -9.06012457 F F F
 C             22.63793109       9.56291101      15.19073010      -0.00005506      -0.00001793       0.00022278      -0.02439273      -0.00462684       0.03789514      -9.30660337 F F F
 C             13.37061830       2.96379150      17.63456696       0.00013203      -0.00008636       0.00014728      -0.01985704       0.00895505      -0.01508083      -9.10309425 F F F
 C              8.17717679      13.43733110       7.35775565       0.00029867       0.00010466       0.00020484       0.01293626       0.01357559      -0.01811608      -9.25922482 F F F
 C             23.65679524      11.37794000      23.08957360       0.00044526       0.00010757      -0.00050445       0.01884329       0.01868844      -0.01805415      -9.24689227 F F F
 C             11.83231365      13.90106595      21.21811604      -0.00000602      -0.00008237       0.00018449      -0.00013233       0.00047554      -0.01412339      -8.93652268 F F F
 C             14.88149307      17.11198691      13.92082710       0.00026784       0.00072480      -0.00053954      -0.00111144      -0.01117277       0.01424212      -9.08014091 F F F
 C             22.83045249       1.00116202       1.11510945      -0.00061324      -0.00049885       0.00019911      -0.02367676      -0.02096022      -0.01154756      -8.85970175 F F F
 C              7.04444396       4.60643208       0.72750298       0.00006490       0.00019221      -0.00048106       0.00526271       0.02229626      -0.00338924      -8.94842530 F F F
 C             11.22042862       4.19456024       1.78154537       0.00021821      -0.00003436       0.00007008      -0.03040284      -0.00857598       0.00401787      -9.15386249 F F F
 C             23.84451778       6.71687009      20.69359998       0.00013002       0.00016204      -0.00061734      -0.00042074      -0.00102635       0.00357226      -9.35231999 F F F
 C             19.36083824      17.02794809      22.88601340       0.00015720      -0.00002493      -0.00000953       0.00010177      -0.01001621       0.02361028      -9.19530431 F F F
 C              8.44622485       6.60740088       2.22448128       0.00008714       0.00013444      -0.00022838      -0.00742131       0.02061283       0.00158064      -9.24142358 F F F
 C              0.85000596       1.06199865      10.71634303      -0.00047710      -0.00024400      -0.00011040      -0.01949434       0.02320329      -0.00662027      -9.30331521 F F F
 C             22.43036238      10.22764070      21.28890809      -0.00031971      -0.00037258       0.00024198       0.00683175       0.01590838       0.00122073      -9.30632989 F F F
 C             13.12521417      12.01402193      20.23170373       0.00002129       0.00000551       0.00011189       0.00192699       0.01066597      -0.03525579      -9.06712555 F F F
 C              1.59703106       5.32480186      21.84420012      -0.00027240       0.00011839      -0.00011602      -0.03704380       0.01220132       0.02572201      -9.14203923 F F F
 C             13.28857241       1.68652699      17.14342237       0.00005883      -0.00004685       0.00001498      -0.01016729       0.01148379      -0.02470675      -9.04378626 F F F
 C             12.89322668       8.96299412       5.70610370       0.00015400       0.00045595      -0.00051728       0.01887041       0.00510567      -0.01016568      -9.25857614 F F F
 C             21.57998429      15.88270038      16.24874364       0.00015031      -0.00025438      -0.00018804      -0.00782105      -0.00015347      -0.00830154      -9.35360446 F F F
 C              5.96236955      14.70637111       7.29734940       0.00000145       0.00008034       0.00034840       0.02975191       0.00841195      -0.00791250      -9.05466373 F F F
 C              3.42938687       0.05152172      14.98846448       0.00007396      -0.00018417      -0.00020430      -0.00509911       0.01325539       0.03444366      -9.07038399 F F F
 C             22.99547419       2.72399091      10.09824667       0.00011357       0.00012189       0.00015104      -0.01115395       0.00056747      -0.00488855      -9.30612450 F F F
 C             19.54163007      10.89710595      12.61921842      -0.00046660      -0.00029174       0.00026725       0.02878097       0.00462238      -0.02133410      -9.29878528 F F F
 C              4.52028522      15.23500065      20.22520890      -0.00049128       0.00004420       0.00034384       0.00760639      -0.01219589       0.02113604      -9.10668737 F F F
 C              6.48588055       5.85382978       1.07895102      -0.00024210      -0.00008916       0.00012998      -0.01194487       0.01429912       0.02495309      -9.05230163 F F F
 C              7.08748984      16.04543770      21.06742373       0.00002752       0.00016573      -0.00054837       0.02447768       0.01518002      -0.03763041      -9.30904843 F F F
 C              0.41452940      13.75814017      17.72705466       0.00014320      -0.00010233      -0.00042326      -0.01755632       0.01140424       0.00209908      -9.28647591 F F F
 C             14.12492604       5.10416790      17.63861199       0.00028465      -0.00008477       0.00030337      -0.01006216       0.00858115       0.02683000      -9.02376325 F F F
 C             20.59093046      10.46219855      13.46320296      -0.00031307      -0.00016593       0.00025411       0.03375917       0.00745346      -0.02484923      -9.31558370 F F F
 C             20.96785145       6.99750461      17.70882523      -0.00010217       0.00004555      -0.00060285       0.00842633      -0.02102926       0.02053712      -8.84351883 F F F
 C             11.95609752      18.67088704      16.55982467       0.00008910      -0.00003427      -0.00009630       0.01121900      -0.00757605       0.00783415      -9.05098228 F F F
 C              5.15081504       1.66363842      22.28512878      -0.00023919      -0.00006415       0.00002510      -0.02124652       0.03271154      -0.00380668      -8.80075336 F F F
 C             19.90547523       7.88706504      17.80812731      -0.00014031       0.00003319      -0.00025767       0.02307339      -0.00102871       0.00777858      -9.19670556 F F F
 C             20.58948719       8.30811074      12.29797115      -0.00009128      -0.00006658       0.00028448      -0.01687821      -0.02317498       0.01242964      -9.31116580 F F F
 C             19.71168680       4.85035453      19.95911290       0.00016285       0.00020853      -0.00003808       0.01474258      -0.03808589       0.01194855      -7.90166402 F F F
 C             21.13678190       7.01750695      12.11902739       0.00002811      -0.00005879       0.00054325      -0.02069136      -0.02613535       0.01153747      -9.29256543 F F F
 C             16.75922875       7.19839174      20.02722946       0.00004806       0.00034714       0.00029638      -0.03688558      -0.01046245       0.00856125      -8.30121885 F F F
 C             14.99581964      14.99621130      21.80605284       0.00021982       0.00048105      -0.00064242      -0.00219359      -0.01375153       0.01745916      -9.19269827 F F F
 C             17.23280788      13.83262657      12.34723059       0.00000352       0.00005037      -0.00017782       0.00303058      -0.00195992       0.00412298      -9.25291413 F F F
 C             21.13735765       2.86626484       5.53424051       0.00008957       0.00015617       0.00026906      -0.00774640      -0.00330962       0.02327066      -9.27874182 F F F
 C              8.69945143       5.58821235      20.82823396       0.00006239      -0.00016003      -0.00031284      -0.00252882      -0.00516364      -0.01599108      -8.66026835 F F F
 C              6.56005165      13.04196697       5.49613119       0.00030433       0.00030695       0.00020937       0.00051875      -0.02685531      -0.01740920      -9.26031770 F F F
 C             14.12502660      13.44877812      10.25089024       0.00020905       0.00018979      -0.00013950      -0.00751951       0.00216063       0.01350404      -9.23049723 F F F
 C              4.60910496      14.48769444       5.13225656      -0.00030619      -0.00053681       0.00055571       0.02013408      -0.02169649      -0.02750290      -9.30520272 F F F
 C             18.48181944       6.48161198       7.98420857       0.00002666      -0.00004963       0.00017099       0.00450992       0.00369947       0.00703608      -9.29909725 F F F
 C             19.52398274       5.17958207      16.91595242      -0.00028942      -0.00010133       0.00015719      -0.01194750      -0.00436199      -0.03149054      -9.19183044 F F F
 C             16.90773583       4.08227367      16.54725806      -0.00006649       0.00008366      -0.00033071      -0.01099173       0.01016959      -0.04083023      -9.10511856 F F F
 C             14.76264370       4.81580767       3.02931587       0.00030437      -0.00078180       0.00042031      -0.01551472       0.00914256      -0.02004877      -9.07335626 F F F
 C              8.17151163      10.86286286       4.58048592      -0.00005806      -0.00012532       0.00033713      -0.00293047      -0.03064768       0.01214444      -9.30385274 F F F
 C              8.81557669      17.00013282      15.51673100       0.00007426      -0.00049573       0.00015843      -0.00257935      -0.01367443      -0.00861484      -9.01195815 F F F
 C              5.21572156      10.60142951       2.19899177      -0.00014387      -0.00012467       0.00036656      -0.01507764      -0.04378518      -0.01148701      -9.24101386 F F F
 C              4.53460098       5.92833561      19.22366875      -0.00011998       0.00028460       0.00003772      -0.00785587      -0.02551967       0.00732179      -9.18543906 F F F
 C              9.61706672      15.13269282      11.02717914       0.00008929       0.00044923      -0.00022326      -0.00116617       0.01032869       0.00995003      -9.24476164 F F F
 C             15.00017764       7.56258900       5.75486403      -0.00008873       0.00002892      -0.00008064      -0.00277953      -0.01407832      -0.00553668      -9.26480422 F F F
 C             13.84145345      15.25482510      11.89302439       0.00013279       0.00041526      -0.00019818      -0.01250562       0.02202799      -0.00358663      -9.17494842 F F F
 C              6.16646549       9.37926699      19.92929988      -0.00032033       0.00004822      -0.00012962      -0.01987987      -0.00773452       0.03236705      -9.18282082 F F F
 C              3.35025350       6.36806702      18.50882913      -0.00006683       0.00021701      -0.00000934       0.01719168      -0.02544306      -0.04259458      -9.30978268 F F F
 C             20.80044023       0.24775919      24.24987757       0.00006016      -0.00027718       0.00019022       0.01422667       0.03981580      -0.07460795      -8.98650416 F F F
 C             20.10337458       9.07631760      18.58356068      -0.00014027      -0.00005446      -0.00006173       0.02676532       0.01704949      -0.00530364      -9.28666118 F F F
 C              1.79700587      18.47848335       8.97730153      -0.00040324       0.00000376      -0.00030261      -0.00617605       0.00308614      -0.01331456      -9.31483171 F F F
 C             12.90045580       7.48037696      18.68066960      -0.00012026       0.00016919      -0.00014325      -0.02704721       0.01746894      -0.01283531      -9.18986263 F F F
 C             22.38190368       4.51269702      11.66496300       0.00074165       0.00033320       0.00017300       0.00589077      -0.00144873      -0.00667430      -9.31487215 F F F
 C              9.08478523      14.62435156       9.78564333       0.00012744      -0.00001773       0.00002835      -0.00712543      -0.01115198       0.02353660      -9.25218766 F F F
 C             23.53372236       0.28378320       2.06318572      -0.00016568      -0.00009113       0.00005563       0.01303730       0.03021350      -0.00129471      -9.13812427 F F F
 C             20.22888848       5.90275006      20.53199104      -0.00013468       0.00018456       0.00009028      -0.03877845       0.01992864       0.00331607      -8.35162619 F F F
 C             17.74079665       7.64827027       8.32474639      -0.00022385      -0.00021685       0.00005043       0.02731461       0.02249638      -0.03133300      -9.28353837 F F F
 C              2.82172321      12.88709801      19.03951354       0.00003962       0.00034020      -0.00041696      -0.01106417      -0.00181834       0.01273972      -9.19802141 F F F
 C             12.20853770       8.60056795      19.24399979      -0.00025895       0.00012485      -0.00003510      -0.01457272       0.01583777       0.00712294      -9.17326347 F F F
 C             18.98790071      18.64229369      15.59378706       0.00012669      -0.00016322       0.00003581       0.00238053      -0.01880298       0.01148886      -9.20710566 F F F
 C             22.48410190      13.19842361      16.16388172       0.00047214      -0.00008375      -0.00067244      -0.00084172       0.00623551      -0.01098552      -9.31256710 F F F
 C             16.53234763      17.03270628      22.98721794       0.00016409       0.00001333       0.00029050       0.00539480       0.01982952      -0.03642037      -9.32256574 F F F
 C             21.45189058       5.03160726      10.72049603       0.00087083       0.00051251       0.00014633       0.02053991      -0.00046749      -0.00967816      -9.27879774 F F F
 C             15.39504464       5.62857534       4.11410814       0.00035706      -0.00044200       0.00012078      -0.00311696      -0.00195786      -0.00501018      -9.05007806 F F F
 C             15.77129973      16.15556489      13.25517542       0.00017673       0.00032545      -0.00015587      -0.00799470       0.00108600      -0.00716412      -9.12691890 F F F
 C             15.09147392      17.10147611      23.00943266       0.00013077       0.00002317       0.00018627       0.01220378       0.00361682      -0.00269692      -9.32504976 F F F
 C             21.65272508      12.43126460      22.04005622      -0.00009506      -0.00034270       0.00046559      -0.01773453       0.00258353       0.03250710      -9.19115225 F F F
 C             18.21524383       5.79109854       6.75835474      -0.00022693      -0.00029656       0.00039466      -0.01406956      -0.00870300       0.03141157      -9.28893040 F F F
 C              4.52831907      18.50233496      15.78766938      -0.00007165      -0.00016277       0.00000684       0.00161648       0.00330521       0.03441496      -8.99601615 F F F
 C              5.24951077      16.68577566      12.65408690      -0.00014874      -0.00005354      -0.00007592      -0.05392614      -0.00834524       0.03853249      -9.00398766 F F F
 C              1.24567120       4.21499825      20.96971841      -0.00038656       0.00006939       0.00016073      -0.01877557       0.00268967       0.01620413      -9.24237634 F F F
 C             14.53461778       1.21117192      25.25443534      -0.00004804       0.00049808      -0.00075047       0.01197510       0.01918430       0.00062083      -9.25106195 F F F
 C             12.55749308       6.05422939       3.36153148       0.00028745      -0.00025075       0.00015220      -0.02307850      -0.00036894      -0.00637303      -9.27197629 F F F
 C             19.51242864       6.02816642       8.86728457       0.00036525       0.00023410       0.00011958       0.00286226      -0.00287894       0.00827541      -9.29976143 F F F
 C             10.17873311      17.33074293      15.63832591       0.00019709      -0.00050800       0.00012974      -0.00348401      -0.00254295       0.00347842      -9.14500034 F F F
 C             10.47959858       5.28163666       2.25801317       0.00028707       0.00014713      -0.00023289      -0.02144438       0.01223738      -0.02578403      -9.21071149 F F F
 C             18.40093295       8.62399732      21.17545359      -0.00002944       0.00019960      -0.00035584       0.00854348      -0.03073232       0.02861756      -7.91619595 F F F
 C             23.44368578      16.52298496      17.79358500       0.00004007      -0.00025022      -0.00030385      -0.01165520       0.00193943      -0.01151303      -9.17924805 F F F
 C             21.37235882      10.25566357      20.32917386      -0.00037194      -0.00041404       0.00040004       0.02003015       0.02188292      -0.01134106      -9.27892142 F F F
 C              0.36837910       9.01838221      22.45712280       0.00016448       0.00004084      -0.00044762       0.01722845       0.00986189      -0.00532803      -9.31795691 F F F
 C             11.91673732      14.47006218      10.48649711       0.00006687      -0.00049205       0.00046138      -0.00530437       0.04220836      -0.00847160      -9.20949159 F F F
 C             15.16988220       0.26000704      24.40906222       0.00005118       0.00030712      -0.00039307       0.02200957       0.01044162       0.01045072      -9.26790669 F F F
 C             23.28211613      18.10109339      25.33167869       0.00041755       0.00042372      -0.00045019      -0.01100087      -0.05076060       0.01755858      -9.05817018 F F F
 C              8.37446813       8.79600221       3.28912397       0.00002966      -0.00002742      -0.00001456       0.00766106      -0.00015656      -0.00025862      -9.30703646 F F F
 C              8.74259735      15.56153006      12.03294527      -0.00005776       0.00057017      -0.00040367      -0.00253522      -0.02357996       0.01757385      -9.22758809 F F F
 C              0.06381597       5.52961429      14.91341076       0.00037144       0.00002482       0.00011114      -0.00994449       0.00338837       0.00304405      -9.29312600 F F F
 C              0.51738572      15.01791824      25.14370709       0.00026878       0.00021636      -0.00030542      -0.00818378       0.01134769       0.02181109      -9.14428515 F F F
 C             17.08709794       5.53307251      16.71126386      -0.00010908      -0.00000094       0.00021918      -0.01497701       0.01859756      -0.01877702      -9.17851189 F F F
 C             18.66470970      18.11111847      23.51753718       0.00020967      -0.00045347       0.00072221      -0.00073368       0.00237434      -0.00908003      -9.27425516 F F F
 C             19.58937358       8.12515001      21.42527632      -0.00049008      -0.00025623       0.00067608       0.02730804       0.02585839      -0.01272309      -7.92255152 F F F
 C              1.84442010       1.86160291      20.52808026       0.00006900       0.00020386       0.00024446       0.03278815       0.01186750       0.00108519      -9.00854394 F F F
 C             15.21575286      15.21665937      12.27976483       0.00007891       0.00025281      -0.00005575      -0.01191334       0.00198233       0.00313407      -9.24876942 F F F
 C             21.41492268       0.71165575      17.19909143       0.00026480      -0.00015301       0.00005287       0.00312918      -0.00698362      -0.00868096      -9.15154390 F F F
 C             19.59423792       8.77581388      11.40524000      -0.00001874      -0.00008317       0.00006113      -0.02598015      -0.02839751       0.01927600      -9.30335493 F F F
 C              4.75673224      16.12156727       9.07750341      -0.00009604       0.00061705      -0.00002194      -0.00289252       0.01780241       0.02833072      -9.10866965 F F F
 C              9.08951008       7.60196451       2.98736001       0.00003910      -0.00005128       0.00003573       0.00166564       0.00699984       0.00816631      -9.31840997 F F F
 C             20.33314500      11.25750409      20.39318729      -0.00017202      -0.00030929       0.00057685       0.01040627       0.03036570      -0.00836512      -9.28464635 F F F
 C              5.99123530       3.94588741      25.84815745       0.00013626       0.00026618      -0.00063247       0.04102491       0.04091929      -0.02938027      -8.69778622 F F F
 C             23.44958623      14.96401546      24.14418828       0.00015719       0.00001583      -0.00017738       0.01609286      -0.01140439      -0.00469524      -9.06974237 F F F
 C              3.49611359      10.06881769      19.00315166      -0.00008703       0.00018462      -0.00027979      -0.01505418      -0.01080443       0.02295573      -9.17013946 F F F
 C              2.30041811      10.52436202      18.39145492      -0.00012811       0.00011488      -0.00006150      -0.02735948      -0.00492693       0.05384812      -9.29956207 F F F
 C             22.88747492      11.83924324      16.12382433       0.00046394      -0.00000981      -0.00047582      -0.02172554      -0.00007506       0.03039449      -9.30215867 F F F
 C              1.96630701      17.67156715       6.27177707       0.00004223      -0.00011916      -0.00021217      -0.00068239      -0.03498277       0.00127068      -9.28269010 F F F
 C              1.87824524       8.19508320      17.71387655      -0.00013950       0.00005500       0.00019138       0.02942639      -0.00602331      -0.04329737      -9.34472300 F F F
 C             22.62440654       2.60581952      18.40314560      -0.00006556      -0.00003293       0.00025092      -0.00928296      -0.00628057      -0.00302199      -9.09057992 F F F
 C             23.35164240       0.66465276       3.41199059       0.00028098       0.00023198       0.00001771      -0.00619897       0.01399265       0.00637761      -9.28089559 F F F
 C              4.05612931       1.48947429      17.30192168      -0.00000901       0.00012504      -0.00004408       0.01889838       0.00702615      -0.00351762      -9.19556290 F F F
 C             17.86543465      12.59091906      12.05208735      -0.00005921      -0.00002803      -0.00024763       0.02070387       0.00348884      -0.01174623      -9.31930854 F F F
 C             22.69752609      16.10265235      23.77854258      -0.00000005      -0.00007116      -0.00005819       0.03335921      -0.02521543      -0.04244945      -9.09881492 F F F
 C              8.22986423       2.13025671      24.30770641      -0.00015759       0.00062634      -0.00010727       0.00515185       0.03334130      -0.02379798      -8.99508253 F F F
 C             22.71024703      17.48495708      24.19576703       0.00002324      -0.00002259      -0.00011512       0.00204733      -0.05124990       0.01295467      -8.96385130 F F F
 C              4.78255842      16.66069695      11.34836363      -0.00058516      -0.00016567       0.00007784      -0.06063281       0.00026340       0.03838760      -9.19341806 F F F
 C              7.55903699       9.03659873      20.19880650      -0.00033303      -0.00004976      -0.00023369      -0.00876038       0.00109361       0.00257302      -8.93211798 F F F
 C             14.34161983      11.52610144      19.67527074       0.00005740      -0.00031970       0.00050525      -0.00002917       0.00670675      -0.03443366      -9.04372029 F F F
 C              2.93192818      11.27495437       0.40126924       0.00014000       0.00008126       0.00003027      -0.00689065      -0.02392869      -0.01829444      -8.90720963 F F F
 C              8.41832121       4.40833154       1.05085469       0.00017654       0.00043996      -0.00043864      -0.00695933       0.01052435       0.00242202      -9.13983585 F F F
 C             10.54692047       3.29669242       0.98671325      -0.00006721      -0.00031453       0.00059012      -0.01609614      -0.00664931      -0.00955114      -9.00823695 F F F
 C             23.57448819       4.72652818      13.80242333       0.00032683      -0.00014181       0.00032374       0.00191535       0.01154216      -0.00441531      -9.30844523 F F F
 C              9.91086286       0.17303002      17.55920166      -0.00004981      -0.00005281      -0.00026084       0.00824646       0.00325353      -0.01124438      -9.14313414 F F F
 C              3.30329881      14.27808760       2.97754355      -0.00008683      -0.00041831       0.00015929       0.00549628      -0.02033148      -0.02903726      -9.30810496 F F F
 C              0.28209394       3.45831508      13.57271312       0.00001646      -0.00033318       0.00033949      -0.01690255       0.00929414      -0.00516593      -9.26483855 F F F
 C             18.13006365       8.42692796       9.45554121       0.00000386      -0.00015633      -0.00012003       0.02623192       0.00384367      -0.02301279      -9.31254663 F F F
 C             16.83276412       3.64975470       2.08161316       0.00027793      -0.00036266      -0.00003099      -0.01789360      -0.02513869       0.00465458      -9.03672990 F F F
 C             23.11915075      13.70419352      23.55387497       0.00023866      -0.00007576      -0.00005591       0.00564019      -0.00209647       0.00845464      -9.32247462 F F F
 C              5.54751732      14.29908685      20.32926563      -0.00044133       0.00005182       0.00066049       0.00533559      -0.00779215      -0.00487991      -9.09263173 F F F
 C             23.30110018       9.07562485      21.42143922      -0.00029251      -0.00025642      -0.00006541      -0.00500966      -0.00343008       0.01795331      -9.28472704 F F F
 C              2.61261801      18.78291777      12.66390153       0.00001678       0.00001241      -0.00036094      -0.00475196       0.04607755       0.00384399      -9.17584837 F F F
 C             10.68367818      15.97984318      21.84158843      -0.00003276      -0.00017944       0.00054171       0.01633088      -0.01664540       0.03798047      -9.15076174 F F F
 C             22.32573319       1.61121267       3.77587421       0.00017361       0.00018044       0.00014068      -0.01657922       0.00120030       0.01244591      -9.29976887 F F F
 C              3.57066895       9.96712421       0.43000541       0.00015875       0.00012103      -0.00007857      -0.01625114      -0.03389590      -0.01177966      -9.27216565 F F F
 C              8.93213361       2.33990788      19.16248171       0.00022339      -0.00000167      -0.00028568      -0.01107890       0.00229739      -0.02500878      -9.18034414 F F F
 C              1.15619760      17.84502003       3.99053640       0.00041541       0.00008636      -0.00017477      -0.02051552      -0.01320848       0.01894733      -9.30377341 F F F
 C              9.93953776      11.41201302       6.17510905      -0.00015341      -0.00027113       0.00037058      -0.00320232      -0.01598082       0.01484231      -9.27926174 F F F
 C             10.00281134      13.86951961       8.99162030       0.00009424      -0.00053755       0.00051217       0.00015245       0.01275965       0.00497492      -9.22653222 F F F
 C              6.64064597       1.35601228      18.51148729       0.00017793       0.00070390      -0.00059922       0.02065910      -0.00123446      -0.03235882      -9.12215159 F F F
 C             21.28261917       9.21049387      19.38686374      -0.00033048      -0.00023643       0.00015878       0.02431286       0.00997092      -0.00224207      -9.27868500 F F F
 C             19.03032304      10.05459645      11.60397411      -0.00009661      -0.00008642      -0.00013104      -0.00697370      -0.01707337       0.00791137      -9.29674263 F F F
 C             12.58689090       2.19832881       0.28849581      -0.00005689       0.00006162      -0.00015346      -0.00550197       0.03703722      -0.03867643      -9.18827353 F F F
 C             16.58317466       0.24067422      24.34465439       0.00012881       0.00010071      -0.00005381       0.01538145      -0.00043527       0.00804188      -9.29538377 F F F
 C              7.61724134       1.05180835      22.39155259      -0.00043973      -0.00044005       0.00046435      -0.01580505      -0.00255175       0.02509567      -8.62023487 F F F
 C             12.57757333      10.91628840       7.19955694      -0.00012889      -0.00000359       0.00003670       0.01286014       0.00140253       0.01185930      -9.27575005 F F F
 C             18.01087810      11.88298719      19.93327777      -0.00001301      -0.00034500       0.00058939      -0.00837127       0.02453121      -0.01670339      -9.29744294 F F F
 C             22.06327591       8.67827292      14.23578498       0.00001490       0.00001497       0.00022214       0.02210465       0.00831710      -0.00879391      -9.31746516 F F F
 C             13.10130948      13.28118021      20.89087197       0.00010806       0.00008561      -0.00005184      -0.00643191       0.00033068      -0.01936504      -9.01832864 F F F
 C              2.57061596       5.46518470      17.70455364       0.00032479       0.00029823      -0.00040431      -0.03000485      -0.03966860       0.01237664      -9.25551569 F F F
 C              1.75557579       0.01488178      10.34550870      -0.00061528      -0.00021240      -0.00026284      -0.00261403       0.04468607      -0.01794909      -9.31794720 F F F
 C              5.23643426      17.52792573      15.02376464       0.00016082       0.00008035      -0.00011010       0.00531251       0.02756891       0.01742256      -9.08610926 F F F
 C             22.23408865      10.91811280      15.24776729       0.00016459      -0.00001017      -0.00011717      -0.04494032      -0.00983389       0.05993163      -9.32909405 F F F
 C             19.00281325      12.18769282      12.79148177      -0.00048395      -0.00030356       0.00027269       0.01912506       0.00304435      -0.00860250      -9.27989556 F F F
 C              1.51311138       9.57527293      17.70267510      -0.00032603      -0.00003246       0.00039655       0.01278439       0.00218365      -0.00472804      -9.26932094 F F F
 C             11.12109875      16.91324494      14.61528626       0.00024713      -0.00027264       0.00007316       0.00392991       0.00197175       0.01080101      -9.36667917 F F F
 C             13.13811003       1.27189856      25.26590495      -0.00012267       0.00034202      -0.00049908       0.01225277       0.02917146      -0.01749226      -9.22784392 F F F
 C              1.00507857       5.03909804      15.84842347       0.00003297      -0.00013202       0.00022201      -0.02186464      -0.01745732       0.00144820      -9.31442565 F F F
 C             19.80814663       6.74137091      10.06020384       0.00031136       0.00006355       0.00022003       0.02013416      -0.00039836      -0.00974125      -9.29531303 F F F
 C              5.22898914       6.05488796       0.49635349      -0.00052129      -0.00023958       0.00047860      -0.01855622      -0.00606599       0.04073650      -8.98537037 F F F
 C             10.88943706      17.25944476      22.44379230       0.00005388       0.00015707      -0.00016502       0.03122981      -0.00483216       0.02676003      -9.11630433 F F F
 C              8.67281510      11.42471738      20.53504767      -0.00025466       0.00012317      -0.00015037      -0.02201168       0.01608157      -0.01047783      -9.13602093 F F F
 C             16.47720299      14.92458292      21.80086041       0.00020443       0.00053947      -0.00063022      -0.01104444      -0.01064259       0.00506977      -9.16201950 F F F
 C              4.59278609      17.38690113      13.69753335       0.00039383       0.00049099      -0.00029265      -0.03208458       0.01388624       0.03978356      -9.15432850 F F F
 C              1.15199295      17.35394766       2.66997445      -0.00004825      -0.00014199      -0.00005138      -0.00422372       0.00858687       0.01726851      -9.24388302 F F F
 C             10.58354919       4.66383620      19.62853863       0.00017624      -0.00008266      -0.00013858       0.00157110      -0.02336135       0.04642005      -9.19606548 F F F
 C             20.16243040       4.30382590       7.26321643      -0.00011750      -0.00011256       0.00045127       0.00575217       0.00834065       0.01830783      -9.29221590 F F F
 C              7.80623039       7.65791850      20.35806099      -0.00018866      -0.00013102      -0.00042013      -0.00676727      -0.00249495      -0.01817795      -9.15889893 F F F
 C              1.62161426      15.53799369       1.16065722      -0.00032899      -0.00013845       0.00007648       0.02170191       0.00688613       0.01012987      -9.11168428 F F F
 C             11.07909673       6.01294425      19.53520933       0.00017116      -0.00000929       0.00008624      -0.00745786      -0.00678924       0.02877159      -9.27415713 F F F
 C              2.10036578       3.07713892      21.23456614      -0.00012152       0.00021744       0.00012469       0.01780489       0.03153374      -0.01274304      -9.06478365 F F F
 C             18.08521683       3.26014708      16.42692825       0.00002270       0.00004660      -0.00047848      -0.01695837      -0.00348412      -0.02289529      -9.24327393 F F F
 C              4.83886407       4.87471126      25.74896604      -0.00023809      -0.00008167      -0.00005416       0.01698379       0.02593616      -0.01480522      -8.76718612 F F F
 C             13.59152030      12.59535953       9.23637124       0.00022793       0.00023315      -0.00021025      -0.00164920       0.00771453       0.00789745      -9.32966094 F F F
 C             15.97723552      14.12840324      11.76391046       0.00001494       0.00014070      -0.00008332      -0.00321123      -0.00296779       0.01184871      -9.25452034 F F F
 C             17.75984852       9.61199578      18.16986852      -0.00002590       0.00006230       0.00004801       0.00884283      -0.00487862       0.02301862      -9.24736532 F F F
 C              4.54748300      11.83615306       2.39494312      -0.00002704      -0.00010827       0.00026705      -0.01018109      -0.04900664      -0.02528608      -9.26180739 F F F
 C              1.28081870      13.82355189      25.56322347       0.00016351       0.00013240      -0.00013290      -0.00669724       0.01353726      -0.00077416      -9.12122669 F F F
 C             12.25587738      17.34019397      22.83981932       0.00012064       0.00017759      -0.00031710       0.04258921       0.00068659      -0.00197327      -9.15849700 F F F
 C             18.55060786       4.40117437      19.53476642       0.00024019      -0.00000995      -0.00006383      -0.00117394       0.04489222      -0.02221044      -7.88042411 F F F
 C              9.11171806       2.43389104      25.31166409      -0.00004010       0.00046128      -0.00006352      -0.01747646      -0.01669304       0.00695832      -8.99614161 F F F
 C              3.78007493      15.57380743       5.51872706      -0.00023655      -0.00048968       0.00031829       0.02794434      -0.01361973      -0.01343182      -9.21569311 F F F
 C             16.23205746       7.25219895       6.40144785      -0.00043334      -0.00041539       0.00034371      -0.01208739      -0.01511767       0.00617567      -9.26323940 F F F
 C             22.04225316       2.76799488       7.82423421      -0.00016903      -0.00002829       0.00028923      -0.00439378      -0.00919853       0.01191823      -9.30024038 F F F
 C             15.26859330       2.10351688       0.20574785       0.00008746       0.00022794      -0.00057214      -0.00425537       0.00752241       0.00984124      -9.27375354 F F F
 C              6.86472087      14.69109455      20.72848414      -0.00030871       0.00000010       0.00047771       0.00516800       0.00866679      -0.01084116      -9.36205166 F F F
 C              1.16605999      14.73293802      18.45935728      -0.00026850      -0.00003128      -0.00006960      -0.03886656      -0.00327989       0.04705454      -9.31856737 F F F
 C             18.72461678       1.18604191      25.08205813       0.00011024      -0.00039685       0.00034479       0.00830151      -0.04031000       0.03166217      -9.26623761 F F F
 C              2.82663047      16.10554429       4.59248420       0.00007567      -0.00039412       0.00001148       0.04418636       0.01155617      -0.01962240      -9.32175410 F F F
 C             12.10579041       0.95555663      17.36005509       0.00012957      -0.00019905       0.00009560      -0.00082827       0.00413346      -0.00825746      -8.99336321 F F F
 C              3.68837500      17.39354172      20.49864329      -0.00006019       0.00028233      -0.00033056       0.02753212      -0.00625695       0.00417978      -9.11687136 F F F
 C             20.76843684       5.65735270      17.31699176      -0.00029769      -0.00010777      -0.00007545      -0.00668976      -0.01643298      -0.00367838      -9.00646341 F F F
 C             21.93607806      13.60797829      22.73447178       0.00009713      -0.00020373       0.00018421      -0.01550695      -0.00704235       0.03892696      -9.22644947 F F F
 C              3.88675958       8.70316285      19.04772058      -0.00016739       0.00015952      -0.00000703       0.00185730      -0.01340558      -0.01831324      -9.26243075 F F F
 C             12.18821134      10.95966496      20.01669827      -0.00022884       0.00021525      -0.00015721      -0.00446630       0.02416161      -0.02895444      -9.14279150 F F F
 C              1.55977115       5.92203812      16.82677865       0.00035157       0.00019219      -0.00028895      -0.03239521      -0.03367653       0.01738792      -9.29901890 F F F
 C              9.10516544       5.40755197       1.87879906       0.00024599       0.00028963      -0.00036203      -0.01359029       0.02762728      -0.02032338      -9.37959884 F F F
 C              0.68692126       1.86849685      19.66690867      -0.00006650       0.00022829       0.00038120       0.01355958       0.01133183       0.00673538      -9.21643180 F F F
 C              0.91942834       0.19335520       8.02830302      -0.00068316      -0.00042425      -0.00018661       0.00179565      -0.00664362      -0.01608899      -9.28238978 F F F
 C              1.99685860      17.21446551       4.94035470       0.00034956      -0.00010188      -0.00019843       0.00519619      -0.01579194       0.00084599      -9.27225251 F F F
 C              0.26674608       0.02583929       4.37196705       0.00050111       0.00027201      -0.00016510      -0.01005362       0.00222800       0.01032381      -9.26843529 F F F
 C              2.67244975      15.50995528       3.31910030      -0.00010323      -0.00042117       0.00003446       0.03778259       0.00745103      -0.01920724      -9.23375538 F F F
 C             22.75845930       0.52678567      25.68110564      -0.00010225       0.00005958       0.00000709      -0.01504326      -0.04879649      -0.00447570      -8.81325780 F F F
 C              1.18309004       7.28791953      16.87151030       0.00031828       0.00016133      -0.00021375       0.00540147      -0.01552656      -0.01128416      -9.28623027 F F F
 C             19.38669195       0.26791357      24.22214323       0.00015331      -0.00058905       0.00066102       0.00492942       0.00377403      -0.01526210      -9.27042829 F F F
 C             23.65851696       9.10802023      16.05773595      -0.00012577      -0.00000547       0.00028479       0.01613608       0.00931578      -0.00361163      -9.30913293 F F F
 C             20.47258661       2.93268474      17.09576962      -0.00010303      -0.00018196       0.00015083      -0.02480244      -0.01811345       0.00070514      -9.34673348 F F F
 C              2.18356764       9.05014228      24.49006538      -0.00030517       0.00007242       0.00014437      -0.01724241      -0.01129520      -0.00885308      -9.07562319 F F F
 C             21.10202007       3.30176799       6.88180435      -0.00018652      -0.00013913       0.00035880      -0.00680593      -0.00607444       0.02373677      -9.28200986 F F F
 C             20.82882146       1.77685949       0.28242927      -0.00015099      -0.00031477       0.00016506       0.02581533       0.04059489      -0.05300484      -8.90569754 F F F
 C              8.55667116       0.25916774      17.81643390      -0.00002607      -0.00028168       0.00024054       0.01371220      -0.02942562       0.01768590      -9.04237374 F F F
 C              7.35369056      15.65621290      11.78831256      -0.00027234      -0.00033884      -0.00012100      -0.00613066       0.00869957       0.01022761      -9.25957266 F F F
 C              6.31132368      11.97833263      20.21325810      -0.00025109       0.00006868       0.00008090      -0.00870384       0.00360980      -0.00135910      -9.14081271 F F F
 C              3.20542629       5.48627252      23.85610481      -0.00056932      -0.00002250       0.00028455       0.01644257       0.01634470      -0.01330755      -8.89940344 F F F
 C              4.30194696      13.80829183       3.87800501      -0.00015541      -0.00038565       0.00040936      -0.00094982      -0.04131774      -0.03349191      -9.21965662 F F F
 C             23.10721195       3.31911428      11.37961883       0.00046687       0.00018967       0.00012160      -0.02467191      -0.01106019      -0.00211895      -9.27819134 F F F
 C             22.08444509       6.52318843      13.05084022       0.00009913      -0.00008047       0.00052138       0.01022403      -0.00463451      -0.00839353      -9.31313410 F F F
 C             12.95402940      15.99283021      12.68648564       0.00014875       0.00068610      -0.00040888      -0.00744286       0.02772713      -0.00194987      -9.21647520 F F F
 C             19.85037082      17.51756687      15.61084029       0.00004467      -0.00027049       0.00024663      -0.00691889      -0.01709492       0.01312968      -9.07867592 F F F
 C              5.16927585       8.34558534      19.58270160      -0.00025781       0.00006860       0.00010008      -0.02506814      -0.00695002       0.03467107      -9.31191401 F F F
 C             12.90618428       5.07437366      18.34055617       0.00016731       0.00003934       0.00007648      -0.01592278      -0.00317789       0.02272399      -9.15251491 F F F
 C             10.85991501      10.85976898      20.30363904      -0.00025414       0.00017048      -0.00019869      -0.00426269       0.03166126      -0.00357300      -9.03869063 F F F
 C             19.02303688       9.97563807      18.72511570      -0.00001778       0.00002535       0.00009831       0.01060459       0.00978950       0.01339840      -9.26004635 F F F
 C             23.15639080       7.97753954      20.52220990      -0.00029831      -0.00010923      -0.00024633      -0.01335308      -0.01343749       0.02673591      -9.27176158 F F F
 C              3.18221380      15.23260075      19.71676826      -0.00048947       0.00025580       0.00009904       0.02722737       0.00573174      -0.03594642      -9.13898176 F F F
 C             10.10491224       9.63562490      20.13057496      -0.00030829       0.00010750      -0.00016674      -0.00483332       0.01929775       0.03891564      -9.08129061 F F F
 C              4.67878822       7.31980057       0.41510946      -0.00031735      -0.00006970       0.00028625      -0.02741790      -0.01713310       0.01255146      -9.09025500 F F F
 C             19.05083699      14.35012843      13.88727442      -0.00031244      -0.00035529       0.00038585       0.00297217       0.00410532      -0.00287420      -9.26447874 F F F
 C             22.58474232       5.73626382      18.78833478      -0.00036399      -0.00004973      -0.00013138       0.01805660      -0.03103465      -0.01551240      -9.09056541 F F F
 C              9.28845851      15.97338420      13.29206182      -0.00000107       0.00064736      -0.00042720       0.00377987      -0.02769449       0.00979972      -9.22825085 F F F
 C              2.39304140      14.26865004      19.08533798      -0.00033669       0.00023463      -0.00002541      -0.00465958      -0.00022614       0.01585703      -9.12653480 F F F
 C             10.42340962      13.29979049      20.96693344      -0.00012983       0.00005532      -0.00004643      -0.01493905       0.01305141      -0.01051233      -9.06221330 F F F
 C             17.31507427       1.18984529      25.10388360       0.00013997       0.00001396      -0.00006717       0.01305276      -0.04453933       0.05534015      -9.27784323 F F F
 C             11.55200505      15.81215575      12.47347550       0.00012689       0.00046854      -0.00024259      -0.00233224       0.03970180      -0.00607491      -9.26859485 F F F
 C             12.31682622       0.48509705      24.34863095      -0.00030723       0.00012049      -0.00016697       0.01904889      -0.00385755      -0.00336433      -9.22633686 F F F
 C              5.27198964       8.36359719       1.20899359      -0.00014005      -0.00005420       0.00014045      -0.02463103      -0.02212345       0.00082091      -9.36740417 F F F
 C             23.17180717      14.16303054      16.97842959       0.00026030      -0.00020111      -0.00050433       0.00982372       0.01078999      -0.03691338      -9.30808484 F F F
 C             19.16957609       7.97901234      10.31086719       0.00001503      -0.00009744       0.00006439       0.00358739      -0.01383916      -0.00352445      -9.29743849 F F F
 C              2.01326401      14.18669584       0.85100085      -0.00005400      -0.00000393      -0.00001135       0.01948221       0.00094832      -0.01839450      -9.05960278 F F F
 C             10.41366688       1.77027041      25.18530521      -0.00029815      -0.00009203       0.00038613      -0.01249607      -0.03776620       0.01235563      -9.12591121 F F F
 C              6.48430618       8.09962851       1.89961081       0.00014189       0.00013930      -0.00029858      -0.00780804       0.00596551      -0.01239577      -9.28762579 F F F
 C             23.85445066       1.63907127       9.75221624      -0.00032198      -0.00011669      -0.00004950       0.00909506       0.02588176      -0.01766156      -9.29560373 F F F
 C             16.14483275      12.08243473      10.37319576       0.00019657       0.00017540      -0.00044007       0.01095064      -0.00202420      -0.00596110      -9.28417289 F F F
 C             17.31856279       4.84225171      19.42377622       0.00031455       0.00026536       0.00031801      -0.01813808      -0.02838778      -0.01371475      -7.89675717 F F F
 C             12.08124099      10.07105454       6.18336512      -0.00005244       0.00015005      -0.00014059       0.01975591       0.00255723       0.00454167      -9.30620637 F F F
 C              3.67843164      18.76029360      20.85826860       0.00003468       0.00017108      -0.00012056       0.00799129      -0.00660131       0.01514890      -8.88183355 F F F
 C             21.78563793       4.85250059      17.94911617      -0.00047774      -0.00010789       0.00022782      -0.01664413      -0.02480977       0.00284127      -9.08137997 F F F
 C              7.78788983      12.73247469       6.16444799       0.00035818       0.00036546       0.00009439      -0.00986299      -0.02873512       0.00241211      -9.27939080 F F F
 C             15.88393731       9.21100460       7.92370105      -0.00040818      -0.00024464       0.00006783      -0.01162885      -0.01939778       0.00843831      -9.29696978 F F F
 C             19.04251938       4.20835137       5.06534317       0.00028353       0.00016122       0.00019804       0.01878860       0.04270157       0.00820569      -9.25841707 F F F
 C              0.49993811       0.53746104      19.17905629      -0.00004590       0.00030220       0.00034300       0.00518654       0.00196665       0.01531585      -9.06447937 F F F
 C             18.41824037       6.07402058      16.88535689      -0.00019519      -0.00004519       0.00032657      -0.01123865       0.00635112       0.00881227      -9.28636851 F F F
 C              6.22346483       0.30876736      17.55382839       0.00000550       0.00029115      -0.00013769       0.03032428       0.01362270      -0.03294049      -9.05172655 F F F
 C              2.89052351       4.09200209      17.66320667       0.00040518       0.00035346      -0.00053015      -0.02432375      -0.03738220       0.01160422      -9.16056504 F F F
 C             15.29919039       9.71661404      18.43893674       0.00000883      -0.00029278       0.00051781       0.01513895      -0.01108402       0.02853446      -9.14942210 F F F
 C              5.46612964       6.96159467      19.72663931      -0.00025044       0.00004660       0.00018624      -0.04249102      -0.01112420       0.05427668      -9.08977161 F F F
 C             17.95493696      10.48512732      10.79110024       0.00020474       0.00004138      -0.00055268       0.00088873      -0.01237871      -0.00307588      -9.31111037 F F F
 C             15.22930718      18.27019434      14.80842826       0.00020049       0.00059674      -0.00051161       0.01459678      -0.01448738       0.00397615      -9.04431921 F F F
 C              4.36478238      11.00244653      19.51013530      -0.00002522       0.00032200      -0.00068066       0.00947185       0.00128890      -0.04217493      -9.13928880 F F F
 C              5.01030958      12.63924461       3.52532022       0.00016415      -0.00007491       0.00029298       0.00764773      -0.03623872      -0.03884286      -9.25028868 F F F
 C             14.18884833       8.68650000       6.23539766       0.00001428       0.00031925      -0.00035210       0.01481083      -0.00474869      -0.01232286      -9.29909256 F F F
 C              0.54984754      10.22072142      23.28369174       0.00038697       0.00013255      -0.00053519       0.00954226       0.01236038      -0.01367155      -9.25451409 F F F
 C              8.45082553      16.24892986      14.35231024      -0.00001420       0.00011792      -0.00027532      -0.00981612      -0.00331441      -0.01299004      -8.92186504 F F F
 C             20.30051250       7.05463976      21.14557360      -0.00019968      -0.00019413       0.00078152       0.00512748       0.03302356      -0.01158726      -7.99254276 F F F
 C              2.39264008       3.20441412      16.65654843       0.00002009      -0.00009194       0.00002352       0.00023118      -0.00466501      -0.01845946      -9.27500397 F F F
 C             21.17998949      11.34789353      14.40524446      -0.00003607      -0.00014403       0.00002778      -0.00797941      -0.00470258       0.01674305      -9.29305431 F F F
 C             17.73166683      18.19880787      14.91579372       0.00014085      -0.00004703      -0.00007308       0.00934964      -0.01591316       0.00932780      -9.07779733 F F F
 C             13.30443173       3.08018534       1.17321820       0.00014648       0.00008636      -0.00033199      -0.02254731       0.01425624      -0.00797855      -9.22722693 F F F
 C              2.68193146       1.18074404      15.28101722       0.00029100      -0.00006432      -0.00025754       0.04199168       0.04991919      -0.02137323      -9.13949018 F F F
 C             21.25563693       4.38171005       9.47720387       0.00059601       0.00048690       0.00019662       0.00801859      -0.00095167       0.00021898      -9.30331235 F F F
 C             12.49514220      17.30898279      14.66604472       0.00029092      -0.00011473       0.00005836       0.00767352      -0.00007211       0.01560100      -9.23108184 F F F
 C              7.23400526      14.35541124       8.04337741       0.00022358       0.00016025       0.00013822       0.02293775       0.00615699      -0.00098707      -9.01937613 F F F
 C             16.65809902       5.96143865      19.62684982       0.00036438       0.00017781       0.00063417       0.03981992       0.00917761      -0.01009855      -8.04846771 F F F
 C             15.43722358       3.85843601       2.13003769       0.00023660      -0.00055696       0.00005381      -0.02483514       0.00194623      -0.01295069      -9.13231317 F F F
 C             14.37529457      11.50814086       8.75525476       0.00001640       0.00009328      -0.00010258       0.01509526       0.01683446      -0.00959164      -9.27677709 F F F
 C              8.06893424       1.33721471      18.63638931       0.00008205       0.00024461      -0.00034852       0.00573081      -0.00010433      -0.02273350      -9.04163161 F F F
 C              4.93506769       0.40878210      21.51373577      -0.00014961      -0.00008469       0.00014253      -0.01020030       0.01550487       0.01063105      -9.03298792 F F F
 C             22.52506940       7.34415594      14.12443542       0.00019903       0.00005516       0.00028064       0.03278276       0.01470116      -0.02551718      -9.29895163 F F F
 C              0.38180485      18.00009072       1.67646151      -0.00006933      -0.00002308      -0.00004645       0.02184293       0.02673568       0.00828835      -9.29623572 F F F
 C              7.13937351       4.05153597      20.07718495       0.00000634      -0.00052826       0.00061180       0.00622562      -0.01044567      -0.00340132      -9.00601831 F F F
 C              3.01964033       7.74910219      18.46276630      -0.00018345       0.00012054       0.00018269       0.04008223      -0.01852471      -0.07121058      -9.26801451 F F F
 C             10.89439598       0.84189345      24.24915770      -0.00050252      -0.00011649       0.00031328       0.00666312      -0.04126442       0.01715862      -9.04147335 F F F
 C              3.43421393      12.22444238       1.49173871       0.00004265      -0.00006409       0.00006983      -0.00447142      -0.04331923      -0.03149614      -9.05248425 F F F
 C             16.62436539       8.04386129       7.53907190      -0.00052748      -0.00040023       0.00025160       0.00539910      -0.00006278      -0.01423793      -9.30250196 F F F
 C             10.35585573       2.32815357      18.77262188       0.00010657      -0.00000382      -0.00033862      -0.01862847       0.00145957      -0.02257726      -9.15507052 F F F
 C             17.33172519      11.72959685      11.06132459       0.00018729       0.00007483      -0.00052760       0.02380256       0.00407198      -0.01920371      -9.28987025 F F F
 C              7.58288720      17.50165503      16.13659970       0.00002241      -0.00069422       0.00051742       0.00208255      -0.02135962      -0.00789637      -9.04922904 F F F
 C              2.63963068       4.85854359      22.70432100      -0.00032416       0.00020532       0.00005025      -0.03386104       0.02927914       0.01401479      -9.21112613 F F F
 C              4.79338582      16.55924853      20.64940356      -0.00017769       0.00014537      -0.00024988       0.00937949      -0.01969043       0.05000189      -9.02403909 F F F
 C              2.75843886      17.52083715       8.53641474       0.00023815       0.00071806      -0.00035597      -0.00456478       0.00151018      -0.00599417      -9.16041480 F F F
 C              3.86569202      16.11199747       6.82429186       0.00000487       0.00001210       0.00010371       0.01163013      -0.02883378       0.00442601      -9.31576589 F F F
 C              9.80522256      18.14485046      22.51910426      -0.00004982       0.00013446      -0.00019372       0.02476327      -0.00522122       0.01614379      -9.16279678 F F F
 C             17.92769034      16.88606826      14.39538728      -0.00004159      -0.00027036       0.00040433       0.00654625      -0.00377547      -0.01477415      -9.07794932 F F F
 C             12.29118699       6.19724206      18.85360967       0.00004473       0.00009405      -0.00010215      -0.01495167       0.00442893       0.01275505      -9.19849596 F F F
 C              3.14429340       8.92017874      25.47681092       0.00012104       0.00026646      -0.00020159       0.00204729      -0.01385863      -0.03328215      -9.10802129 F F F
 C              7.13952407       6.85275956       1.75638648      -0.00000411       0.00004668      -0.00020739      -0.01105938       0.01530744       0.01422043      -9.21548479 F F F
 C             10.24825032       9.46222432       4.70674236      -0.00023197      -0.00033312       0.00036048       0.02445340       0.00659976      -0.01031745      -9.28842596 F F F
 C              5.28251471      12.98354273      20.04372150      -0.00020124       0.00013436       0.00014532      -0.00051295      -0.00117828      -0.03357302      -9.14405476 F F F
 C             16.86855989      13.75039618      21.09141978       0.00019275       0.00042610      -0.00048257      -0.02852521      -0.00696307      -0.00648226      -9.03750352 F F F
 C             21.39529293       2.14062355       2.80762569       0.00021027       0.00029216       0.00016348      -0.00196792       0.02302390      -0.00423594      -9.17738279 F F F
 C              1.74649865       1.03983087      13.00444012       0.00024092       0.00002522      -0.00030677      -0.03839338       0.00926209       0.00465243      -9.31812515 F F F
 C              4.68611991       9.65796296       1.27985836      -0.00012019      -0.00005543       0.00022659      -0.03652852      -0.04210828       0.00598159      -9.25306258 F F F
 C              4.24602334       2.83415790      22.77265801      -0.00011133       0.00021329      -0.00033437      -0.01870467       0.04262171       0.00342014      -8.82280316 F F F
 C              4.71572879       3.49736054      23.91980376      -0.00052416      -0.00004393      -0.00010851      -0.02778712      -0.00390328       0.02962694      -9.14174583 F F F
 C              1.08799247      12.60073189      24.87628325       0.00020917       0.00006695       0.00000252      -0.00612632       0.00799924       0.00253374      -9.15670682 F F F
 C              9.04237722       6.94473875      20.50302444      -0.00013921      -0.00020160      -0.00044512      -0.00968356       0.00010361      -0.02529378      -8.85988730 F F F
 C             17.25424370      18.09092665      23.59629420       0.00021068      -0.00018307       0.00051117       0.00264120       0.02347405      -0.03917501      -9.23104101 F F F
 C             20.34897972       1.54564073      16.78870685       0.00015704      -0.00017909       0.00007443       0.00347089      -0.01564227      -0.02149091      -9.13895518 F F F
 C              7.92707319      13.74125849      20.76694688      -0.00036732      -0.00006425       0.00089936      -0.00891362       0.01138230       0.01608044      -9.35077103 F F F
 C              8.68705595       9.98074453      20.30107144      -0.00029383       0.00013240      -0.00033216      -0.01759715       0.01705467       0.00177243      -9.05815230 F F F
 C             16.75914604      11.43650336      19.43568476       0.00002720      -0.00050159       0.00074145      -0.00160320       0.03707867      -0.04574800      -9.25402314 F F F
 C             14.32379267      16.06549336      22.38486045       0.00017305       0.00017714      -0.00015192       0.01166357      -0.00716176       0.01756116      -9.06278338 F F F
 C              2.04016290       7.79874905      23.73105243      -0.00041451       0.00000870       0.00020744       0.00198480      -0.00968298      -0.01171638      -9.12854385 F F F
 C             19.37157859       3.78320695      16.76228599      -0.00008739      -0.00010523      -0.00009447      -0.02147674      -0.00983551      -0.01687588      -9.21612440 F F F
 C             18.09465743      13.05355969      20.80556070       0.00007472       0.00000590       0.00012518      -0.02804715       0.00806434      -0.00548207      -9.18459202 F F F
 C             11.02844705       8.32884497       4.28691851       0.00000365      -0.00016998       0.00014528       0.01643169       0.00609082      -0.00996190      -9.27897728 F F F
 C              1.15774167       2.92590418      14.54610913      -0.00026050      -0.00052175       0.00039144      -0.01007876       0.00705596      -0.01677077      -9.28027777 F F F
 C             17.25983411      15.91357559      22.38736922       0.00013594       0.00034002      -0.00020075      -0.00583649       0.00307438      -0.01225407      -9.12785832 F F F
 C             12.89366034      18.24982356      15.62740357       0.00027499      -0.00017004       0.00012624       0.01803964      -0.00709719       0.01537729      -9.18283528 F F F
 C             23.87134579       1.18497248       8.41240031      -0.00043974      -0.00019120      -0.00005777       0.02706255       0.02505129      -0.01511648      -9.30788723 F F F
 C              6.40966228      10.28794472       2.94603388      -0.00000033      -0.00000790       0.00026240       0.01003064      -0.01097310      -0.03224161      -9.29805955 F F F
 C              3.47171456      18.28231096      13.68535048       0.00031898       0.00018451      -0.00042740      -0.03683078       0.01288391       0.03487127      -9.08623210 F F F
 C             13.30437574      14.42268769      10.84889177       0.00011146      -0.00007396       0.00018204      -0.00565583       0.02278479      -0.00394446      -9.28666014 F F F
 C              1.52644074      10.25753203      24.32591255       0.00005537       0.00018987      -0.00014014      -0.01374896      -0.00137931       0.00653580      -9.14218954 F F F
 C             10.04785731      11.94831339      20.66036326      -0.00024986       0.00014514      -0.00025467      -0.01755944       0.02515298      -0.02140713      -9.08593115 F F F
 C             16.34355880      10.04441354       8.98761713      -0.00002291      -0.00001702      -0.00033213      -0.03037383      -0.04370901       0.03542074      -9.29658035 F F F
 C             15.55320746       1.95932667      16.20286935       0.00003676       0.00014487      -0.00037179       0.01773915      -0.00010919       0.01402915      -9.18042645 F F F
 C              5.94845180       3.66061073      19.52758995      -0.00000732       0.00024656       0.00006619       0.00881707      -0.03138568       0.01695908      -9.06450517 F F F
 C             12.92065362      16.12977827      22.31713510       0.00009870      -0.00001751       0.00010041       0.01837122       0.00136824       0.01369760      -9.17402315 F F F
 C             10.85076747       8.45901157      19.77211984      -0.00017087       0.00003670       0.00013082      -0.00172172       0.01739742       0.04716160      -9.18231266 F F F
 C             21.51294778      15.91193241      22.99554641       0.00022516      -0.00005369      -0.00041405       0.02177409      -0.01955192      -0.02769970      -9.00328413 F F F
 C              6.16195196      12.29294951       4.32012541       0.00024050       0.00017004       0.00026954       0.00320116      -0.03246167      -0.01877125      -9.28942957 F F F
 C              7.09434209       9.06967496       2.71199909       0.00018270       0.00017745      -0.00028149       0.01509545       0.00566588      -0.03251467      -9.27229665 F F F
 C              1.84254126      16.15225241       2.37344461      -0.00022923      -0.00030374       0.00009655       0.00882017       0.00929239       0.00902279      -9.19555158 F F F
 C              4.89853642      15.63926037       7.74884422      -0.00002077       0.00028571       0.00017529       0.01857810      -0.00882173       0.02119782      -9.12290424 F F F
 C              2.44031737       0.51835448      20.44757259       0.00011528       0.00027839       0.00002666       0.00443524       0.00163869       0.03747293      -9.07095419 F F F
 C             17.87651065       4.52621622       4.24579472       0.00049661       0.00011177      -0.00003572       0.00038149       0.01017326       0.00917550      -9.05696261 F F F
 C              9.52250406      13.17534033       7.85419583       0.00001226      -0.00055713       0.00058422       0.01572009       0.03174377      -0.02131287      -9.26682045 F F F
 C             21.06963313       9.14124849      13.34147711      -0.00009057      -0.00006052       0.00024197       0.03100537       0.00458503      -0.02208055      -9.29545330 F F F
 C              0.16310012       7.74860642      15.99906060       0.00033608       0.00017521      -0.00009942       0.01542795       0.00777264      -0.00889306      -9.31845703 F F F
 C             11.16110096       6.24452924       3.03030339       0.00024767      -0.00007513       0.00005256      -0.01857170       0.00195272      -0.01338260      -9.30274546 F F F
 C             22.65602156       5.23936696      12.85356829       0.00043734       0.00003574       0.00037371       0.00715692       0.00018469      -0.00786331      -9.28025028 F F F
 C             16.69882042       1.31019017      15.72189498       0.00011207       0.00008600      -0.00019846       0.01595504      -0.01202872       0.01417969      -9.16951052 F F F
 C             21.01670864      14.69849115      22.58810746       0.00019219      -0.00011365      -0.00016633      -0.00707977      -0.01273132       0.00761464      -9.15419417 F F F
 C              7.62845725      12.35737635      20.52435646      -0.00035716       0.00000758       0.00060753      -0.02015997       0.01358883       0.02147814      -9.10104805 F F F
 C             12.84701837       9.83669810      19.34821021      -0.00031028       0.00014153      -0.00010326      -0.00904411       0.01275735      -0.02722119      -9.12923509 F F F
 C             14.14766838       7.51393601      17.98156275      -0.00007879       0.00007961      -0.00012381      -0.01675859       0.02421992      -0.00860410      -9.16910451 F F F
 C             11.89182856      15.23549085      21.76388250      -0.00004721      -0.00025250       0.00063532       0.01307590      -0.01071849       0.01583408      -9.01987540 F F F
 C              2.97232360       1.91379730      16.46728543       0.00003504      -0.00010025      -0.00011119       0.06118738       0.04062205      -0.03913656      -9.24981961 F F F
 C              0.42065414      10.02591200      16.92070379      -0.00025751      -0.00007438       0.00036377       0.03186764       0.01646477      -0.02139186      -9.31378568 F F F
 C             10.76883331      10.33298672       5.68030783      -0.00022157      -0.00023218       0.00023863       0.01901623       0.00217991       0.00012377      -9.27792724 F F F
 C             12.96539894      18.30034239      23.60702713      -0.00006582       0.00022314      -0.00025586       0.03827414       0.00812501      -0.00002339      -9.17466181 F F F
 C             22.23238163       8.13623310      19.45042595      -0.00033246      -0.00015352      -0.00018162       0.00718970      -0.01427685       0.01173328      -9.18364001 F F F
 C              2.95395014       6.83925150      24.31966970      -0.00034882       0.00008393       0.00030174       0.02789196      -0.00232898      -0.02474468      -9.09358617 F F F
 C              0.90496623       6.60018922      21.75107607       0.00014787       0.00023098      -0.00061392      -0.00099539       0.00781405       0.00109057      -9.11242415 F F F
 C             21.65163503       3.47216692      17.81723144      -0.00028466      -0.00012708       0.00040958      -0.03461821      -0.02460606       0.00279510      -9.16860347 F F F
 C              0.88377330       1.60558664      12.02853810      -0.00008167      -0.00015699      -0.00009993      -0.06144626      -0.00809119       0.00977660      -9.27067820 F F F
 C              8.45470325       3.46590283      19.89385584       0.00023015      -0.00036512       0.00019329       0.01124216      -0.02558637       0.01622403      -9.00706654 F F F
 C              5.52658464      15.96343402      10.26337936      -0.00050562      -0.00024261       0.00011346      -0.02309766       0.00792995       0.04120324      -9.13186506 F F F
 C             12.25259139      12.78879173       8.76211112       0.00015429      -0.00003619       0.00003598      -0.00538470       0.00705340       0.01386324      -9.25720966 F F F
 C             10.83940361       1.22851895      18.02452764       0.00002780      -0.00015082      -0.00009640      -0.00802995       0.00764702      -0.02152506      -9.14893330 F F F
 C             21.37936971      13.58925456      15.36875795       0.00026330      -0.00016972      -0.00040751      -0.00067010       0.00234828      -0.00745442      -9.27724169 F F F
 C             16.04734440       6.49196075      16.92816538       0.00001858       0.00006241       0.00019834      -0.01196783       0.01047862       0.01394074      -9.00080475 F F F
 C              7.06017835      16.24216829      14.17885069      -0.00005112      -0.00011843      -0.00010853      -0.00770646       0.00795159      -0.01823655      -8.83049744 F F F
 C              8.94183551       9.72144645       4.18457379      -0.00018513      -0.00027025       0.00036726       0.01072348      -0.01379369       0.00692217      -9.28768445 F F F
 C              6.92171636      11.15709779       3.94302286      -0.00000273      -0.00004093       0.00038396       0.00883073      -0.02493319      -0.01471528      -9.25126810 F F F
 C             10.42712435       7.39023165       3.43310324       0.00005101      -0.00019882       0.00017173      -0.00018639       0.00399915       0.00078346      -9.24951299 F F F
 C              7.67904379      14.82155633       9.40177990       0.00001426      -0.00012401       0.00001592       0.00105905      -0.00870756       0.02312507      -9.06758744 F F F
 C              7.42906334      18.46330757      17.15060560      -0.00013774      -0.00051734       0.00055680       0.01522826      -0.02026971      -0.00254175      -9.04788288 F F F
 C              7.29190014       5.38765496      20.64251024       0.00004828      -0.00024804      -0.00001035       0.00209955      -0.00700534      -0.06482869      -8.65811070 F F F
 C              1.12612798       7.77454951      22.64180677       0.00011903       0.00011222      -0.00036814       0.01696916      -0.00102721      -0.01103629      -9.13670097 F F F
 C              9.26859116      14.17611680      21.05344639      -0.00018749      -0.00006424       0.00043227      -0.00423047       0.00413359       0.01422122      -9.26486378 F F F
 C             15.58171913      12.06547964      19.88093666       0.00007520      -0.00033971       0.00052759      -0.00325210       0.00927337      -0.02856425      -9.02466827 F F F
 C              6.72332846       6.65882953      20.28854859      -0.00013218      -0.00027215      -0.00020057      -0.01695037      -0.00312447       0.00551113      -9.15341783 F F F
 C             14.45228574      13.86280967      21.13019611       0.00016360       0.00039105      -0.00053647      -0.01168470      -0.00995523       0.00258718      -9.05076415 F F F
 C             21.51657168       1.03668971      25.15278716       0.00001063       0.00010036      -0.00006280       0.01469398       0.00152468      -0.03388475      -8.75325604 F F F
 C              5.71231039      14.08988395       5.98698004      -0.00003404      -0.00008850       0.00048240       0.02684287      -0.00003444      -0.02686549      -9.25198375 F F F
 C              9.44573682      15.53241798      21.43143292      -0.00001627      -0.00008603       0.00030152       0.01393158      -0.00328698       0.02832522      -9.22039939 F F F
 C              2.69912104      16.58707077      19.86067244      -0.00020572       0.00036330      -0.00022259       0.04952925       0.01551015      -0.05477003      -9.05781245 F F F
 C              2.87146902      17.09948372       7.19698024       0.00024126       0.00033465      -0.00019306       0.00353025      -0.02970737      -0.00030425      -9.27443232 F F F
 C              6.49012187      17.01098353      15.25973867      -0.00004163      -0.00040973       0.00017578       0.00302207       0.02038199      -0.01404684      -8.86445994 F F F
 C              0.76516066      16.08877616       0.16373327       0.00008978       0.00017818      -0.00018434      -0.00133632       0.00330829       0.03689600      -9.05048603 F F F
 C             22.06265267       7.06557031      18.59420026      -0.00017142       0.00001223      -0.00043877       0.02288361      -0.01120570      -0.00163316      -9.01443100 F F F
 C              1.01504117      18.66722871       6.67296756      -0.00044763      -0.00050538      -0.00014560       0.00236151      -0.02827670      -0.00687681      -9.33386586 F F F
 C             21.64809245       1.79053414       1.46108500      -0.00030730      -0.00025533       0.00016911       0.01278712       0.03657431      -0.01900102      -9.07431928 F F F
 C             22.92264184      17.84733029      17.77206310       0.00039227      -0.00009468      -0.00022287       0.00969883       0.00890696      -0.02028377      -9.16313836 F F F
 C              7.44608238      18.66891260      21.84776301      -0.00010306      -0.00011767      -0.00024703       0.01332822       0.00025296       0.01298579      -9.05352489 F F F
 C             20.29454205       4.88836272       8.54565308       0.00041129       0.00029550       0.00022846       0.00219287      -0.00110681       0.01572595      -9.27559998 F F F
 C              3.64190479      17.33163881      10.81225074      -0.00034400       0.00021969      -0.00015506      -0.01497474       0.05666991       0.00159677      -9.04921855 F F F
 C              8.55258813      17.77191021      21.90560674       0.00003871      -0.00000132      -0.00038025       0.02398339       0.00421104      -0.00421655      -9.35896743 F F F
 C              4.93065045       0.38598507      16.93169645      -0.00000154       0.00015237      -0.00005731       0.00657411      -0.01669514       0.03456366      -9.10792787 F F F
 C             10.33963885       7.15405483      19.96081569       0.00001486      -0.00007367       0.00007904      -0.00087890       0.00927045       0.02031768      -9.12686844 F F F
 C             21.51686793      18.11215859      23.59680429      -0.00006440      -0.00021855       0.00012054      -0.00105211      -0.03605585       0.01427519      -8.77019888 F F F
 C             11.74741816      11.97388834       7.71963113      -0.00007332      -0.00022663       0.00027399       0.00406900       0.00487961       0.01108674      -9.31361092 F F F
 C              4.13402644       4.65883326      24.53133391      -0.00075518      -0.00031116       0.00026208       0.00627429       0.01442180      -0.00192960      -9.06412201 F F F
 C             12.36743790       8.08429380       4.73637746       0.00025268       0.00027211      -0.00040497       0.01601738       0.00585939      -0.01501838      -9.28797154 F F F
 C             20.13980111       3.33873439       4.62059022       0.00048028       0.00054723       0.00013667       0.01027283       0.02333514       0.01226135      -9.28957938 F F F
 C              0.80351769      12.36597071      17.70635101       0.00029925       0.00003817      -0.00046702       0.00066162       0.01467939      -0.00037381      -9.32446784 F F F
 C              0.10311297       2.77356943      12.33930463       0.00017735      -0.00011817       0.00015448      -0.04321799      -0.00469826       0.00631111      -9.31963849 F F F
 C              0.20246037       4.24637132      20.01677522      -0.00025773       0.00013428       0.00005588      -0.01217596      -0.00108922       0.01867344      -9.05762349 F F F
 C             13.45199401      16.82178132      13.74102490       0.00020925       0.00063010      -0.00039924       0.00063315      -0.00348715       0.02008459      -9.25599108 F F F
 C             14.17837545      18.86189863      15.57634966       0.00015192       0.00017648      -0.00016012       0.01783486      -0.00160225       0.00629834      -9.23583932 F F F
 C             14.53309453       6.71402265       4.69176597       0.00024399      -0.00005127      -0.00012072      -0.00426550      -0.02519899       0.00039977      -9.24368316 F F F
 C             20.23215622       2.92413713       3.25829777       0.00052854       0.00058326       0.00011350      -0.00163059       0.01587654       0.00916942      -9.07799359 F F F
 C              3.05797701       3.47136976      22.23708072      -0.00006213       0.00034906      -0.00017915      -0.01108381       0.05076132       0.00464421      -9.11569784 F F F
 C             12.40694480       3.74303295      18.35447984       0.00015505       0.00002721      -0.00001695      -0.02659770      -0.00444347      -0.00179910      -9.07952172 F F F
 C              1.85396362      11.42227222      25.20832478       0.00019905       0.00011866       0.00002582      -0.01045080      -0.00404539      -0.00101225      -9.04572493 F F F
 C             17.97647097       1.88957521      16.05430226       0.00015235       0.00001047      -0.00036913       0.00863308      -0.01281741      -0.01700747      -9.23252943 F F F
 C             21.05374368      17.21764302      16.28770850       0.00019917      -0.00020996       0.00000809      -0.01190952      -0.00593244       0.01050475      -9.14016383 F F F
 C             11.02583241      15.16128816      11.31762462       0.00010540       0.00002531       0.00004708      -0.00140752       0.05273669      -0.01311954      -9.26771115 F F F
 C             14.65764543       9.53041768       7.28123256      -0.00031350      -0.00002089       0.00002959       0.01247065       0.00441331      -0.01436755      -9.28406407 F F F
 C             23.49680549       6.86641000      15.03696980       0.00053094       0.00016396      -0.00007154       0.01473392       0.01477871      -0.01203379      -9.31540095 F F F
 C             11.14389141       3.52759680      18.94232127       0.00009845       0.00002322      -0.00032247      -0.02379554      -0.01447942       0.01158361      -9.12325305 F F F
 C              6.82923334      15.44955858      10.45297797      -0.00048915      -0.00053985       0.00001344      -0.00807518       0.01276424       0.02348418      -9.08614090 F F F
 C              5.92005688       3.19143617      24.64084866      -0.00029048       0.00032054      -0.00047056      -0.02728133      -0.02794880       0.02937542      -8.98761011 F F F
 C              0.15056587       0.40612438       5.72316241      -0.00004851      -0.00010822      -0.00011435       0.00470428      -0.00256762       0.00749662      -9.28677438 F F F
 C             19.44870111       1.94509466       0.17957232      -0.00005636      -0.00061816       0.00034089       0.01697723       0.00565446      -0.01311059      -9.14199955 F F F
 C              8.64237943      11.68499876       5.63430415       0.00006922       0.00004083       0.00018317      -0.01846019      -0.03930898       0.02531021      -9.28796472 F F F
 C              9.20521949       3.37826444       0.51895626       0.00007763       0.00023593       0.00003187      -0.01660079      -0.01197793       0.01149856      -8.95818602 F F F
 C              1.81340941       1.68992152      14.28575755       0.00031427      -0.00009979      -0.00020807      -0.00419092       0.01543530      -0.00699620      -9.25682503 F F F
 C              0.06281944      11.40802312      16.93671451       0.00025080      -0.00000871      -0.00025594       0.01649001       0.01431617      -0.01060864      -9.31165382 F F F
 C              9.39434612       4.46223370      20.30882070       0.00014870      -0.00016167      -0.00020627       0.00908342      -0.04016004       0.06409192      -8.73207998 F F F
 C             14.74064357       6.28926995      17.42045554       0.00014708      -0.00001614       0.00031557      -0.01458499       0.01381413       0.01907930      -9.08212269 F F F
 C             17.58529776       8.37246411      17.45808666      -0.00007567       0.00014378      -0.00010663       0.00622258      -0.01024600       0.04185908      -9.12268990 F F F
 C             17.82038092      14.72922973      13.26927332      -0.00016865      -0.00019933       0.00021327       0.00014684       0.00381256      -0.00173054      -9.33216612 F F F
 C             13.87449246      10.65413984       7.73355730      -0.00020816      -0.00002313       0.00010517       0.02818119       0.02183714      -0.01846431      -9.32285414 F F F
 C             21.71402044      18.18471198      17.02808153       0.00034739      -0.00016590      -0.00008542      -0.00113373      -0.00223955      -0.00382237      -9.18492739 F F F
 C             14.35127105       1.20396178      16.31115051       0.00001157       0.00016335      -0.00024001       0.00959086       0.00455765      -0.00314141      -9.33641655 F F F
 C             20.91775122      14.91274450      15.44365722       0.00013817      -0.00024563      -0.00018439      -0.00154291      -0.00001895      -0.00307063      -9.29315443 F F F
 C             19.11931409       3.22082859       2.44839984       0.00041284       0.00006131       0.00003332      -0.01212608      -0.01428891       0.00815188      -9.11395441 F F F
 C             11.23161175       2.33569618       0.25272233      -0.00017549      -0.00043843       0.00058067      -0.00860394       0.00521668      -0.02423510      -8.89826516 F F F
 C             14.49032103       3.80552233      17.25896474       0.00012261      -0.00008075       0.00008765      -0.01118948       0.01242318       0.00278219      -9.13065981 F F F
 C              6.01692157      16.99007550      21.05734289      -0.00001748       0.00012193      -0.00067983       0.01778151       0.00365632       0.00645346      -9.15695438 F F F
 C              6.52817991      16.11902227      12.88002956      -0.00025650      -0.00035924      -0.00006003      -0.02502084       0.01012018      -0.00153648      -9.19326548 F F F
 C             18.72242893      15.81234843      22.40221995       0.00015559       0.00024504      -0.00028699      -0.00985049       0.01127543       0.01483143      -9.04168161 F F F
 C              8.70188914       1.24442636      23.28936165      -0.00061268      -0.00033812       0.00050165       0.01550579       0.02960523      -0.02276314      -9.08106188 F F F
 C             20.72162934      12.67481262      14.49645748      -0.00009494      -0.00021983      -0.00002023      -0.00871844      -0.00349847       0.01196933      -9.33253169 F F F
 C             10.66163834      16.22728665      13.47119332       0.00008512       0.00042595      -0.00028219       0.00185827       0.00465281       0.01210402      -9.19755146 F F F
 C             22.46300911       1.26172706      18.01626035       0.00025747      -0.00004602      -0.00000262       0.01199821       0.00254458      -0.02856273      -9.18432638 F F F
 C             16.75585250       5.41889567       4.73249078       0.00027434      -0.00018570       0.00011665       0.00016492      -0.00186518       0.01083342      -9.00550541 F F F
 C              8.36562498      16.45525987      21.45456844       0.00006068       0.00002944      -0.00038393       0.02200005       0.00803749      -0.01632123      -9.22486359 F F F
 C             22.08013282       3.27307621       9.14449151       0.00011582       0.00016585       0.00024413      -0.00485196      -0.00460652       0.00275692      -9.28370687 F F F
 C             22.73476642      15.52330559      17.00960197       0.00010580      -0.00028303      -0.00026768       0.00014705       0.00751590      -0.02962953      -9.32016704 F F F
 C             15.64906882       3.32949073      16.65617194      -0.00003004       0.00009855      -0.00036366      -0.00862847       0.00884889      -0.01140175      -9.13121348 F F F
 C             16.60942590      10.29720607      18.60909672      -0.00002995      -0.00030996       0.00052015       0.00655346       0.00779350      -0.00451646      -9.26671341 F F F
 C             11.39182487      13.72659531       9.39204422       0.00009294      -0.00044490       0.00043854      -0.00587066       0.01503574       0.01178820      -9.30598524 F F F
 C             14.40832912      18.17495889      23.67088824       0.00000517       0.00011734      -0.00004475       0.02852849       0.00781000       0.01292730      -9.31299991 F F F
 C              4.07394947      12.39738436      19.55279800       0.00001403       0.00034010      -0.00052062       0.01083856      -0.00083732      -0.05901769      -9.09285342 F F F
 C             17.37224982       2.85108793       1.00430920       0.00020556      -0.00038426       0.00012546      -0.00047180       0.00149322      -0.00015378      -9.07417134 F F F
 C             22.58419796      11.34449039      22.13687213       0.00004552      -0.00019224      -0.00000641       0.00323177       0.01655990       0.00275940      -9.29337982 F F F
 C              1.96435897      11.92625170      18.39666594       0.00019332       0.00018378      -0.00040784      -0.02847178       0.00221456       0.04158339      -9.31105301 F F F
 C             17.15937602      15.97225103      13.62339795      -0.00004148      -0.00018690       0.00032223      -0.00489054       0.00300822      -0.00841611      -9.15192238 F F F
 C              1.54847320      17.10881523      19.31385429      -0.00023849       0.00027856      -0.00013289       0.01299338      -0.00430335       0.00682230      -8.81851964 F F F
 C             15.63251295      11.22388543       9.35524705       0.00010393       0.00009844      -0.00033505      -0.00472288      -0.01838455       0.01528201      -9.31072103 F F F
 C             10.62471371      18.20783417      16.62981920      -0.00000351       0.00012049      -0.00035394       0.00018469       0.01093129      -0.01304127      -8.96021364 F F F
 C             19.13607438       1.06193672      16.11901658       0.00015338      -0.00008145      -0.00015081       0.01694685      -0.01053184      -0.02595097      -9.10938120 F F F
 C             10.41151297      12.20562586       7.24213838      -0.00015784      -0.00053591       0.00056224       0.00471646       0.01031611      -0.00382594      -9.27633378 F F F
 C             23.51310308       5.54964477      19.82321218      -0.00008966       0.00012138      -0.00035196       0.01135228      -0.00303441      -0.00217844      -9.18185459 F F F
 C              4.78502232       4.50964887      19.23065901       0.00028175       0.00046171      -0.00048819       0.01532165      -0.02664826      -0.02174491      -9.02212568 F F F
 C             14.69203460       3.01923781       1.17126932       0.00015244      -0.00003171      -0.00037606      -0.02144279       0.01772061      -0.00514864      -9.24003279 F F F
 C             18.64472970       7.45157980      17.31271760      -0.00017743       0.00001195      -0.00002204       0.00530801      -0.00611032       0.04140673      -9.26622856 F F F
 C             23.75095727       2.96546279      19.33357039      -0.00014591       0.00012339       0.00026326      -0.00708259      -0.00194392       0.01021131      -9.07054470 F F F
