     512
 Properties=species:S:1:pos:R:3:velocities:R:3:forces:R:3:local_energy:R:1:fix_atoms:S:3 Lattice="24.4970958299       0.0000000000    0.0000000000    0.0000000000   21.9992420279    0.0000000000    0.0000000000    0.0000000000   19.7490757924" temperature=1.02735515 pressure=-810.94715684 time_step=1.0000 time=1000.000000 energy=-4692.285364 energy_soap=-3806.89928061  energy_2b=-614.79561682 energy_3b=-142.21424137 energy_core_pot=-45.74939388 energy_vdw=0.00000000 energy_exp=0.00000000 energy_xps=0.00000000 virial="-4.34671508         -16.81568090     -8.17456193    -16.81568090     -8.95425100      7.30955298     -8.17456193      7.30955298     -2.99591077" stress="0.00040841            0.00157996      0.00076806      0.00157996      0.00084132     -0.00068679      0.00076806     -0.00068679      0.00028149" volume=10643.123346 step=1000
 C             18.73967233      14.56319916       5.98004007      -0.00003684      -0.00011419       0.00022427      -0.00737961      -0.00594101      -0.00017827      -9.23058860 F F F
 C             15.42186540       3.16486399       1.06029362      -0.00000796      -0.00001256      -0.00022914       0.02591774      -0.00881698      -0.01678473      -9.33246204 F F F
 C             11.74413039      12.01077160      10.29223067       0.00002040      -0.00000983      -0.00015355       0.01285806       0.01961960      -0.01577646      -9.17884941 F F F
 C             12.77224763       6.91994798      16.11609747       0.00014430       0.00010056      -0.00023244       0.01404639      -0.00474186      -0.00327218      -9.27180338 F F F
 C             18.87976833      19.97745190      19.45469490      -0.00030172       0.00026942      -0.00032182       0.00037076      -0.00307817      -0.01388044      -9.07837632 F F F
 C             19.17072807       7.22664974      11.87377944       0.00045321      -0.00007106       0.00003358      -0.04127347       0.01828547      -0.02901586      -9.18602391 F F F
 C             23.06845622      19.97120719       3.05635020      -0.00003526       0.00019851      -0.00016110      -0.00571505       0.00658805       0.01001797      -9.14071305 F F F
 C              2.73535156       2.76457038       2.49058052      -0.00018252      -0.00009456       0.00011453      -0.00446643      -0.00476934      -0.00621179      -9.10233119 F F F
 C             18.76140710      18.83904119       9.07492248      -0.00039047      -0.00016839       0.00018157       0.00747547       0.00048694       0.01412511      -9.15338126 F F F
 C             22.93653331       8.48637434       9.34712245       0.00017376      -0.00026641      -0.00003956       0.00756669      -0.02727882      -0.00310699      -9.09008600 F F F
 C              8.46760867      17.26365693      19.34912445      -0.00014834       0.00015231      -0.00027115      -0.01767411       0.02543562      -0.04014488      -9.13855700 F F F
 C              8.85014012      14.38451109      18.85283348      -0.00002678      -0.00009980       0.00009472      -0.02417895      -0.00791469       0.04161662      -9.16109739 F F F
 C             20.54710765       4.04812552       8.74249753       0.00038489       0.00029368       0.00003230      -0.00366867       0.01052412      -0.00409744      -9.30017937 F F F
 C             19.88082705      19.77173880       7.07164197      -0.00046611      -0.00007198      -0.00003790       0.01640776      -0.00702653       0.02098212      -9.09406076 F F F
 C             12.05811608       9.42325942      17.14902131       0.00001158       0.00003545      -0.00007978       0.03171631      -0.01058262       0.00894758      -9.27246391 F F F
 C              4.20729443       1.01729758       1.56142372       0.00002437      -0.00010633       0.00056356      -0.01095853      -0.00792209       0.00155778      -9.20325292 F F F
 C             23.27327590       5.78055306       6.74137111      -0.00012964       0.00035739      -0.00056240       0.00050516      -0.00619131      -0.02650974      -9.14435994 F F F
 C              6.95984498      10.34582002       7.84290928      -0.00000197      -0.00018717       0.00008502       0.00371754       0.04015049      -0.01059089      -9.31622996 F F F
 C             14.47983913       5.59957980      14.87258949       0.00008646       0.00002399      -0.00032920       0.00554548      -0.01616175       0.02268061      -9.18344021 F F F
 C             13.12819147       9.00980251       4.40388655      -0.00015232      -0.00022203       0.00001615      -0.00031095      -0.03710600       0.01566514      -9.30581025 F F F
 C             17.02647546      21.87302203       0.29656446      -0.00023837      -0.00003489      -0.00023127       0.01793357       0.00510302      -0.04710666      -9.31595242 F F F
 C              4.50768866      10.15485633       7.96743234      -0.00002894       0.00011043      -0.00008679       0.00147749      -0.01700234       0.01540642      -9.27379088 F F F
 C             18.56084872      12.39875425       4.74484191      -0.00037975      -0.00011131       0.00009307      -0.00569894      -0.00394134      -0.01343382      -9.24055626 F F F
 C             22.88821447      13.02241123      13.40053995      -0.00017672       0.00011112      -0.00017302      -0.00692604       0.00547461      -0.01066150      -9.16558431 F F F
 C              4.23697697      11.82746350      19.38456019      -0.00021553      -0.00003311      -0.00006718      -0.00397562      -0.00513513      -0.00718026      -9.17870735 F F F
 C             19.49179329       4.31333094       1.39062727       0.00006694      -0.00013451       0.00006255      -0.00221403      -0.00317219      -0.02738829      -9.22246823 F F F
 C              0.85211640      10.68751814      10.04273417       0.00007617      -0.00050397       0.00026136      -0.01556625       0.00185265      -0.01053106      -9.12104593 F F F
 C              1.56854938       4.58544283       3.58397829      -0.00004889      -0.00013479       0.00011257       0.01707276      -0.02040973       0.00782493      -9.07092150 F F F
 C             18.10874432      16.86656423      11.00862723       0.00031635      -0.00033556       0.00066987      -0.04753853       0.01316196      -0.01884359      -8.72796676 F F F
 C             22.52988393       2.57045317       0.32125264      -0.00012046      -0.00027040      -0.00002395      -0.00125902       0.00018458      -0.00794465      -9.13125439 F F F
 C             22.78253787      17.84055386       2.16772010       0.00043269      -0.00000288       0.00003282      -0.00146800       0.01137556       0.00874709      -9.09356694 F F F
 C              8.10730727      21.45851842       0.39516096      -0.00004376       0.00033321      -0.00043076       0.00867556       0.00162577       0.02001291      -9.24557758 F F F
 C             10.63747686       8.80614258       4.68283918      -0.00015835      -0.00024879       0.00013625       0.00525263       0.01446769       0.00026774      -9.23409030 F F F
 C             19.86006058       5.64734902       1.70754481       0.00023309      -0.00017130       0.00020729      -0.00994976      -0.00365494      -0.02096191      -9.29535322 F F F
 C             13.85786943      21.64088143      14.73351879      -0.00000325       0.00016179      -0.00004163       0.01055717      -0.00057489       0.01678047      -9.19833739 F F F
 C             10.47775746       2.18115629      16.59900685       0.00033129       0.00004394       0.00093808      -0.02080483       0.01573290      -0.03566650      -9.06707364 F F F
 C             15.29150509      13.95855386      11.41717564      -0.00017724       0.00004592       0.00002475       0.00094253      -0.00075258       0.00365623      -9.15551486 F F F
 C             19.81152031       0.40453523       8.22503205       0.00012036       0.00010395       0.00036510       0.00348149       0.00600392       0.02248559      -9.27198553 F F F
 C              5.43862845      16.13650579      14.93356627       0.00011579      -0.00037793       0.00026939      -0.00156939      -0.01513642       0.00524189      -9.29261590 F F F
 C             23.10527001      12.13068877       0.70059126      -0.00038973      -0.00005371      -0.00013958      -0.01326623       0.00631618      -0.02162947      -8.96720174 F F F
 C              1.96317200      19.91152510       1.29285145      -0.00001192       0.00012464      -0.00009641      -0.02127612       0.01700980      -0.00172373      -9.18457106 F F F
 C             18.63602061      10.13293274       3.57037221      -0.00030089      -0.00009538      -0.00014276      -0.01446796      -0.00229011      -0.04450845      -9.06349901 F F F
 C             22.91983895      15.63028757       1.15573342       0.00037514      -0.00010856       0.00016344      -0.02195934       0.02623516      -0.02084492      -8.97136563 F F F
 C              9.07076387       4.24735492       1.51196801       0.00018284      -0.00025480       0.00100273      -0.01403284      -0.01488565       0.00047984      -9.02053395 F F F
 C              4.79547411       3.57014014       2.01991224      -0.00014570      -0.00016532      -0.00003500       0.00366097      -0.01781059       0.03414102      -9.18021331 F F F
 C             15.56287470      16.56281453      18.61257764       0.00008136      -0.00016648       0.00015902      -0.00736653       0.00702336       0.00395635      -9.20984330 F F F
 C             20.54053042       9.63322557      12.27466674      -0.00004051       0.00008653      -0.00028677      -0.00145397      -0.02319281       0.01002391      -9.24018104 F F F
 C             21.35985255      13.88057707       1.95415256      -0.00027624       0.00010669      -0.00011014       0.01364102       0.00549856       0.01609940      -9.23090874 F F F
 C             10.31013668      16.34737985      14.91143963       0.00021686       0.00010185       0.00006135      -0.00288224       0.00471621       0.00107339      -9.14702085 F F F
 C              9.10578318      12.96955251      18.62869232      -0.00015694      -0.00013929      -0.00021682       0.00239135      -0.01499384       0.02271440      -9.12723017 F F F
 C             16.58621205      15.69651597      18.18056817       0.00017327      -0.00023505       0.00053135       0.01521473       0.01619032       0.03756530      -9.20324012 F F F
 C              2.54819161      13.81979712      19.51805165      -0.00013260       0.00002932      -0.00018137      -0.01485070       0.01660580      -0.01302718      -9.01560100 F F F
 C             10.17601479       1.32009941       0.52910693       0.00011974      -0.00004534       0.00057492       0.00533087       0.01834374      -0.02074368      -9.14711365 F F F
 C             22.21153524       0.84741820       5.36860643      -0.00003140       0.00005559       0.00039424      -0.02615570       0.01069894      -0.00790382      -9.31075469 F F F
 C             20.55351403       2.75465878       8.16711817       0.00046853       0.00018249       0.00034058       0.01150253       0.00586666       0.01334270      -9.29727140 F F F
 C              6.15064145       3.77493478       1.76918678      -0.00014099      -0.00010897      -0.00009931      -0.00893436      -0.00563851       0.00843944      -8.96462118 F F F
 C             11.44541897       1.30664780      16.14857522       0.00023731       0.00016653       0.00053209      -0.01645722       0.02170038      -0.03366052      -8.89152552 F F F
 C             23.14922367       3.15009063       5.47968739      -0.00050221       0.00035131      -0.00032482      -0.01736742       0.00332056      -0.02287911      -9.30200634 F F F
 C              4.97698141      19.80854881      16.84990668       0.00015406      -0.00023822       0.00028359       0.01039638       0.00147188       0.01251846      -9.14968914 F F F
 C             15.64263923       8.95672056       3.95308933      -0.00004306       0.00000810      -0.00013198      -0.01970052      -0.01381893      -0.01416795      -9.04023725 F F F
 C              2.71289386       4.12246176       2.88236091      -0.00020688      -0.00007685      -0.00011781       0.00742353      -0.01296561       0.00835617      -9.10503973 F F F
 C              6.93139393       4.73116351      18.05102914       0.00003988       0.00007482       0.00009714      -0.00916858       0.01288561      -0.01667150      -9.11861511 F F F
 C              5.33604255      17.32758411      15.70409203       0.00006772      -0.00034932       0.00025324       0.00043702       0.02072599      -0.04387341      -9.34430246 F F F
 C              1.04000334       9.55602511       0.40139902      -0.00010099      -0.00000919       0.00042242      -0.01083476      -0.01046781      -0.01831555      -9.21846005 F F F
 C             22.20490022       5.10338240       1.00290736       0.00012548      -0.00031018       0.00032360      -0.00567608      -0.01729729       0.00861942      -9.14607934 F F F
 C              5.19151989       7.81392616      19.30648220      -0.00003635      -0.00008169       0.00024488       0.00713099      -0.01794182      -0.01235716      -9.08456416 F F F
 C             20.32085820       7.63660117      10.98692131       0.00037488      -0.00007115       0.00005035       0.00713886      -0.01353780       0.01705363      -9.20619421 F F F
 C              3.27534892      11.10785315       9.81993131      -0.00003132      -0.00001510       0.00003063      -0.00592458      -0.03515601       0.02555778      -9.23027214 F F F
 C             10.20893656      17.50646089      15.66872091       0.00021726       0.00008965       0.00014288       0.00539117      -0.00126215       0.01888896      -8.94376671 F F F
 C             11.41448494      15.26313560      18.75129736       0.00008652      -0.00003400       0.00034361      -0.04063411      -0.00489460       0.02751652      -9.11915055 F F F
 C              4.63418139       5.88992523       2.95608168      -0.00000584      -0.00019449       0.00000253      -0.00256787      -0.00539562      -0.01318139      -8.99715871 F F F
 C             12.97228880       3.23276580      15.57579824       0.00039552       0.00007961       0.00034331      -0.02380946       0.00431677      -0.02493468      -9.05068532 F F F
 C             24.13880051      19.68930178       2.14515475      -0.00011072       0.00032157      -0.00038275      -0.01197814       0.01905031       0.00066739      -9.13016759 F F F
 C             23.85242640       6.94154684       0.80494072       0.00015742      -0.00024282       0.00066163       0.00705696      -0.03381892       0.05049407      -9.13478605 F F F
 C             11.34560213       2.09161335       0.64729338       0.00009086      -0.00002413       0.00025885       0.01059576       0.00131110      -0.00468641      -9.07492671 F F F
 C             11.83640224       8.54780123       3.98749430      -0.00017066      -0.00009672       0.00007000      -0.00104902      -0.01104870       0.00093745      -9.21442056 F F F
 C              4.40215018       8.02094448       4.32789219       0.00019277       0.00041875      -0.00035781       0.00348738       0.00211596      -0.01756176      -9.04572263 F F F
 C             16.73548606      18.41327988      12.27773469       0.00035470       0.00000659       0.00057481       0.02595543       0.01027610       0.04368970      -9.24083079 F F F
 C              5.98596903      10.09930613      19.06250609      -0.00022067      -0.00010740      -0.00019710       0.02218761      -0.02164449       0.00390384      -9.10298873 F F F
 C             11.57717160      15.96375115      14.36532712       0.00014692       0.00012279       0.00002506       0.00153435      -0.01380868       0.01334107      -9.26853278 F F F
 C             19.44190291       9.23984622      13.07616507       0.00005922       0.00004897      -0.00025479      -0.03443905       0.00318856      -0.01816373      -9.15845664 F F F
 C              8.97708371      18.23889013      15.95386254       0.00014151       0.00016127      -0.00024187       0.00346434       0.00495977       0.01879297      -9.05835018 F F F
 C             16.59522447      20.54847739      19.69076966      -0.00021104       0.00003930      -0.00040609       0.00740942       0.00472939      -0.03424566      -9.30883620 F F F
 C              1.85681065       0.56533194       2.31799861       0.00009966      -0.00009849       0.00064921      -0.01725593       0.01147743      -0.02109961      -9.24591289 F F F
 C             20.85053559      11.78093474      13.78870450       0.00009601       0.00001671      -0.00014555      -0.00997012      -0.00055654      -0.01356075      -9.14829192 F F F
 C             22.85848953      10.40461312      10.83306266       0.00009575      -0.00037810       0.00014542      -0.00721717      -0.01393348      -0.00927222      -9.09124548 F F F
 C              8.91618390       1.76159697       0.75015985       0.00012259       0.00014785       0.00019955      -0.01395405       0.00405284      -0.01613666      -8.99696787 F F F
 C              8.22648283      10.54157500      18.47742960      -0.00027820      -0.00019313      -0.00065934       0.02521956      -0.03077472      -0.01894800      -9.10619934 F F F
 C             21.03217210       8.82133089      11.18085097       0.00020377      -0.00009915       0.00000724       0.01152862      -0.02410790       0.01245640      -9.11382106 F F F
 C             16.85393760       5.28146841      13.11144365       0.00018056       0.00002628      -0.00017924      -0.01274834       0.00697213      -0.00879075      -9.05921847 F F F
 C              6.04173088       5.72488189      18.54704201      -0.00006133      -0.00001730       0.00004770      -0.00644594      -0.00856298       0.01330357      -9.13399745 F F F
 C             13.71527795       1.49113249       0.55191899      -0.00001790      -0.00009531       0.00000324       0.02898811      -0.00770352       0.01014452      -9.12534365 F F F
 C              9.45493114      20.94528118       0.16398100      -0.00006417       0.00013969       0.00005234       0.01858630       0.01951199       0.00399689      -9.21294409 F F F
 C             24.22860219       8.87544996       8.69619870       0.00016284      -0.00023454       0.00002968      -0.01450394       0.00039208      -0.02184416      -9.05064647 F F F
 C             21.12786173      12.48269315       2.05573539      -0.00056871       0.00012603      -0.00021060       0.01870938       0.00447764       0.01818298      -9.23480447 F F F
 C             14.56718852       1.96019161      14.50374797      -0.00018688       0.00005208      -0.00044949      -0.01221276       0.00059542      -0.00184125      -9.04664972 F F F
 C              4.79761723      16.65256038      19.49416858      -0.00002390       0.00011984       0.00034596      -0.00381996       0.01364789       0.01231262      -9.10591784 F F F
 C              8.17945731       8.52759138       4.80667668      -0.00009992      -0.00017162       0.00009706       0.01161121      -0.00900164       0.02398484      -9.26134776 F F F
 C              4.34979614      14.40068131      13.57217266       0.00006473       0.00009980      -0.00025014      -0.01141093      -0.00363032       0.00135154      -9.28814894 F F F
 C              1.47426330       5.90223986       3.96857646       0.00034380      -0.00018286       0.00023569       0.01883099      -0.01923576      -0.00870438      -9.10833562 F F F
 C              2.05122701      16.34493930       0.08091731      -0.00004746       0.00018343      -0.00053294      -0.00923771       0.02610255      -0.01908514      -9.12900588 F F F
 C             18.92640760      11.98306147      15.48590477       0.00040733      -0.00006598       0.00019795       0.02139327      -0.00611023       0.02730995      -9.13194559 F F F
 C              0.76153476      13.55664167      13.17390811      -0.00009474      -0.00016288       0.00010261      -0.00415523      -0.01131480       0.02107244      -9.31269176 F F F
 C              0.19078073      18.93279006      17.52053495      -0.00003649      -0.00019085       0.00022557      -0.02017368       0.02880001      -0.03848394      -9.34743289 F F F
 C             11.97193093      10.06799331       6.37764589      -0.00017014      -0.00011647      -0.00005870       0.01216948      -0.00169729       0.00589302      -9.14764039 F F F
 C              4.73118189       1.66184363      18.00703188      -0.00025234       0.00020364      -0.00094091       0.00118194       0.00769677      -0.00382826      -9.15009442 F F F
 C             23.23621261      13.47905114       0.42500447      -0.00019087      -0.00003884      -0.00007872      -0.01638119       0.01478540      -0.00477577      -8.84800276 F F F
 C              0.56920034      15.41654975      15.22680528      -0.00029006       0.00029129      -0.00026217       0.00421766       0.00003636       0.02355069      -9.28955405 F F F
 C              6.35823329      13.89702769      19.07523477      -0.00005082      -0.00007120       0.00006605      -0.00314243      -0.01883362       0.01362854      -9.10334635 F F F
 C              3.85742442      13.16147269      19.35318584      -0.00012073       0.00001448       0.00001525      -0.00977809       0.00079623      -0.01257685      -9.15645129 F F F
 C             14.19475970       3.25232377      14.85031903       0.00024710       0.00001619       0.00002255      -0.05156655       0.00431072      -0.06421356      -9.10395927 F F F
 C              2.82393934      15.22739939      19.53909045      -0.00007052       0.00006097      -0.00019078      -0.00802611       0.01688827      -0.01825734      -9.13490457 F F F
 C              7.77926217      17.55286084      15.66291976       0.00014067      -0.00000582      -0.00010958       0.00195513       0.01679919      -0.03154073      -9.17064231 F F F
 C              8.14507371      11.48366424       9.66156768       0.00013764      -0.00072436       0.00036273       0.00816458       0.01243358      -0.00090026      -9.27438140 F F F
 C             16.49487365       7.05248288       2.57388313       0.00013630       0.00016495      -0.00056968      -0.01891982      -0.04217009       0.04352402      -9.24232841 F F F
 C             17.38660203      15.77100057      11.59153975      -0.00009195      -0.00022874       0.00036140       0.00464779       0.00183254       0.00573788      -8.77266131 F F F
 C             21.49547869       1.52743074       0.27443851      -0.00021804      -0.00014221      -0.00010509       0.00978583      -0.00563257       0.02588378      -9.19471239 F F F
 C             23.13165093       1.82020666       4.90368163      -0.00021473       0.00014701       0.00019825      -0.01950237       0.00414304      -0.01102229      -9.31728040 F F F
 C             14.67187876       0.47939483       0.37588545      -0.00013843      -0.00018633       0.00008624       0.02679721      -0.00877208       0.01432708      -9.30031628 F F F
 C              4.26438110      15.40751039      19.36267081       0.00001004       0.00008477       0.00021217       0.00278442       0.01082859       0.00872164      -9.12018596 F F F
 C             11.91602934      16.61367402      18.97252699      -0.00002049      -0.00003252       0.00031993      -0.02478185      -0.00560253       0.02252887      -9.11074509 F F F
 C              8.77097206       7.59510276      17.89262925       0.00005989      -0.00018410       0.00011330       0.02578128      -0.01091671      -0.01693238      -9.03221489 F F F
 C             18.44051719      21.57332015      10.04185528      -0.00015795       0.00009514       0.00005416      -0.03269186       0.01468211      -0.00503842      -9.26191585 F F F
 C             19.36162628      21.29132072       0.05521224      -0.00027574       0.00008990       0.00006401       0.00017422      -0.00722357      -0.01725124      -9.11329441 F F F
 C              0.55366439       3.68985067       4.02565362      -0.00011528      -0.00000891       0.00015210       0.01880048      -0.01749367       0.00800180      -9.31832928 F F F
 C              0.15160070       4.71852022       0.23425284       0.00007687      -0.00031612       0.00048195      -0.01078017      -0.01874939      -0.02426623      -9.00770679 F F F
 C             18.29709077      13.88276173      16.91330447       0.00028830      -0.00016481       0.00057359       0.01967280       0.03069744       0.01616625      -9.16736917 F F F
 C             23.90820836      14.66677405      14.87381175      -0.00029873       0.00025016      -0.00018992       0.00644162       0.00404637       0.00708257      -9.24601593 F F F
 C              6.99106019       2.20707750      17.57292590      -0.00022236       0.00026972      -0.00081983      -0.01263283       0.01318857      -0.03671385      -8.94120979 F F F
 C             13.20721478       5.66648982      15.63166424       0.00009988       0.00010538      -0.00033526       0.02294607      -0.01255491       0.03516725      -9.29489279 F F F
 C             12.97905681      20.58966561      15.16000703       0.00017220       0.00016166       0.00023087       0.02096339      -0.00945696       0.00871824      -9.15876729 F F F
 C             10.65423166      10.92180958       8.36518374       0.00002520      -0.00018831      -0.00002906       0.01771208      -0.02298419       0.02000646      -9.34973094 F F F
 C             11.72923093      12.84261356      11.46128209       0.00006191      -0.00000650      -0.00019264       0.00238032       0.02587681      -0.02875671      -9.27769904 F F F
 C             19.16121360      21.30402412       8.85864305      -0.00030651       0.00008158       0.00002923      -0.00074586       0.00423176       0.01639062      -9.34135130 F F F
 C             21.70796937      12.90799723      14.16903365      -0.00008028       0.00004185      -0.00003175      -0.00707430       0.01303431      -0.01659579      -9.05433615 F F F
 C              8.92645187       3.69842763      17.26511099       0.00033509      -0.00001240       0.00089186       0.00084971       0.00540551       0.03258262      -9.19712120 F F F
 C             21.84497748       3.75109283       0.80324616      -0.00004916      -0.00023117      -0.00009399      -0.01408965       0.00049954      -0.03711700      -9.09553731 F F F
 C             21.26010257      16.12171193       2.94129719      -0.00009660       0.00015897      -0.00033223       0.00788706       0.00617420       0.00348015      -9.31959225 F F F
 C              6.97360517      20.63582287       0.41535823       0.00002811       0.00026480       0.00013491       0.00793860       0.00297160       0.03291880      -9.24847810 F F F
 C             13.64517650       1.01291351      15.02047186      -0.00004122       0.00011641      -0.00004990       0.00379642      -0.00247048       0.02702828      -9.04830605 F F F
 C              3.90307965       6.92468720       3.54694654       0.00029130      -0.00001606       0.00006596      -0.00336652       0.01503506      -0.05026446      -9.12792437 F F F
 C              0.97471098       7.66011715       5.36184203       0.00054947      -0.00019097       0.00016056       0.01020853      -0.04043290       0.00573855      -8.83911430 F F F
 C             23.00375694       9.32691511       1.14574198       0.00011396       0.00003858       0.00065490      -0.00116967      -0.01832976      -0.01333082      -9.20982183 F F F
 C             17.04707445      20.78046592      11.89507707      -0.00016378       0.00008225      -0.00011781      -0.02781108       0.02015912      -0.00586671      -9.29763257 F F F
 C              3.56934079      21.63496347      17.71905579       0.00013828      -0.00021845       0.00029395      -0.00659087       0.00664866      -0.00461954      -9.27473196 F F F
 C              2.05988213       9.07111414       6.98638400       0.00032090      -0.00025852       0.00013072      -0.00499210      -0.00414671      -0.00833005      -9.23990402 F F F
 C              7.87068340      16.29370854      14.93214824       0.00021682      -0.00009406       0.00001630      -0.00082835      -0.01123498       0.00414331      -9.31117999 F F F
 C             24.21963571      12.11946602      11.58106556       0.00003591      -0.00033913       0.00011153      -0.01379805       0.00648119      -0.00690394      -8.91329509 F F F
 C             13.34704532       9.24633490      16.59741734       0.00005193       0.00014510      -0.00015355       0.03062460      -0.01020711       0.02527042      -9.25618052 F F F
 C             14.89316159      12.55948811      17.45392862      -0.00006335       0.00033013      -0.00096517       0.01031874       0.02941280      -0.00599039      -9.11207323 F F F
 C             18.14008548       3.89348951       1.36297038       0.00003092      -0.00008263      -0.00002942       0.00524008      -0.01526778       0.01253402      -9.27603170 F F F
 C             13.89649584      16.55778133      13.80909599      -0.00024163       0.00043707      -0.00047654      -0.00371977      -0.00612104      -0.02682772      -9.21072817 F F F
 C              3.23683197       8.66092020       4.90735506       0.00014569       0.00048201      -0.00039844       0.00745107      -0.04247093       0.01736491      -8.68660796 F F F
 C              0.75643181      21.72520424       2.55425960       0.00018161      -0.00012031       0.00068712      -0.00840987       0.01213404       0.00135359      -9.22453682 F F F
 C             19.17906316       7.88735401       2.54731288       0.00012557       0.00000117      -0.00021419      -0.01494065      -0.00316352      -0.03489542      -9.24654291 F F F
 C             12.94102673      11.75137053       9.65331053      -0.00006045       0.00009297      -0.00021008       0.01075163       0.01260663      -0.01366244      -9.00590071 F F F
 C              1.92944944      14.15455279      13.64457633      -0.00011208       0.00006865      -0.00010012      -0.00700619      -0.01160829       0.02893125      -9.24764602 F F F
 C             19.80126639      17.91401497      18.40235747      -0.00028035       0.00031587      -0.00007690       0.01474116       0.00445897      -0.00225758      -8.91424322 F F F
 C             10.81034390      19.68515907      16.02661879       0.00018690       0.00016492       0.00005269       0.01916270       0.00467799      -0.02243498      -9.05748306 F F F
 C              9.20136363      14.63528585      13.59532397       0.00025661      -0.00014227       0.00009209      -0.00181049      -0.00027452      -0.00560136      -9.26726984 F F F
 C              1.45576201      18.56178111      17.01912978       0.00006595      -0.00032707       0.00051795       0.00051909       0.00560059       0.02006566      -9.26166739 F F F
 C              5.48409913       0.54110823       1.11047172       0.00007724       0.00013158       0.00037094      -0.00610477      -0.01496115       0.02457813      -9.17881460 F F F
 C             24.11604777       5.44788749       5.57824264      -0.00011362       0.00021002      -0.00031636       0.02210329      -0.03012628      -0.00453952      -9.17678624 F F F
 C              5.68944709       8.40573671       4.84018906       0.00004171       0.00037670      -0.00022679       0.00704276       0.00070158       0.00025078      -9.17861579 F F F
 C             11.06177763       5.75847733       1.73299450       0.00000926       0.00012481       0.00015701      -0.01539316      -0.00778441       0.00058128      -9.04125648 F F F
 C              6.74958001       4.97910809       2.12225767      -0.00002477      -0.00028056       0.00015042      -0.00563098      -0.00155993      -0.00723004      -9.17083509 F F F
 C             15.34513115      20.00932816      13.54698965       0.00002074       0.00020985       0.00002521      -0.00551326       0.01323411      -0.00174558      -9.25874276 F F F
 C             20.39782887      14.05574495      15.99952098       0.00008495       0.00013075       0.00046015       0.02706590      -0.00276010       0.02345364      -9.17073588 F F F
 C              5.64830353      21.15512409       0.75857700       0.00014929       0.00008903       0.00070197      -0.00055274      -0.00676526       0.02774423      -9.37839591 F F F
 C             15.33978520       6.70472265      14.62330650       0.00010258       0.00000749      -0.00020771       0.00764476      -0.01874425       0.03269706      -9.20892313 F F F
 C             22.50581111       7.26623283       8.66749309       0.00013092       0.00013641      -0.00044642       0.01396373      -0.02315176      -0.00503957      -9.13669844 F F F
 C              4.71921017       5.23873264      18.86142729      -0.00016874       0.00004150      -0.00029012      -0.00239508      -0.00774674       0.03545959      -9.15321019 F F F
 C              8.47731965      18.70540772      19.60863947      -0.00015454       0.00022198      -0.00033221       0.00549858       0.02665723      -0.01455082      -9.34638162 F F F
 C             21.48397514       6.34607505       8.99474599       0.00018020       0.00028456      -0.00035177       0.02042569      -0.01463877       0.01451669      -9.17210382 F F F
 C              6.11204685      18.46336814       0.03815739      -0.00003538       0.00019264       0.00033676       0.00586568       0.01271953       0.02554743      -9.16483338 F F F
 C             21.56079568      13.90560063      15.23616811      -0.00013860       0.00012748       0.00013905       0.01415046      -0.00213018       0.00727454      -9.16384671 F F F
 C             21.14540757      10.87963887      12.62850674      -0.00002595       0.00000757      -0.00018938      -0.00160121      -0.02022400       0.00121589      -9.12909203 F F F
 C             13.68734837       8.01325210      15.99469609       0.00021881       0.00006283       0.00003088       0.01336623      -0.00401926       0.00154678      -9.30396899 F F F
 C             21.20732653       6.05708388       1.47853752       0.00022653      -0.00015561       0.00020593      -0.00035519      -0.01568208       0.02336658      -9.29363997 F F F
 C             22.27064480       9.19953378      10.40867078       0.00019833      -0.00041168       0.00014141       0.00662120      -0.02650630      -0.00152421      -8.90287765 F F F
 C              9.34250832      11.90882802      10.27274080       0.00016468      -0.00073010       0.00033972       0.01375335      -0.00605391       0.00078508      -9.29562803 F F F
 C              1.76993644      18.59093921       0.79542912      -0.00009625       0.00025674      -0.00059310      -0.01780511       0.02256547      -0.01187632      -9.14536805 F F F
 C              5.71261720      11.35482787       9.70898526       0.00003159      -0.00013325       0.00004502      -0.00197658      -0.01321111       0.01682168      -9.27124883 F F F
 C              3.27592334      10.32433918       8.66023890       0.00003797      -0.00012350       0.00010331       0.00046284      -0.03581959       0.02340322      -9.31710245 F F F
 C             12.60839984      11.80866177      17.71439116      -0.00007993       0.00009640      -0.00023842       0.01189555       0.01376074      -0.02096498      -9.03844562 F F F
 C             16.24594806      13.08712326       9.16547227      -0.00009541       0.00001971       0.00025527      -0.01593189       0.02709583      -0.00790003      -9.13438314 F F F
 C             16.32159113       2.82388462      13.09143156       0.00007170       0.00006315      -0.00023682       0.02402219       0.00746789       0.03115941      -9.30195613 F F F
 C             18.77919375       5.91548272      11.50600259       0.00039982       0.00005646      -0.00012959      -0.00461856       0.00457641      -0.00688237      -9.07907307 F F F
 C              2.45671788       5.24744773      19.49516718      -0.00005326      -0.00011912       0.00006944      -0.01630910      -0.00648048      -0.01887090      -9.16256459 F F F
 C              1.16798789      21.19619649      18.14626174      -0.00004700      -0.00010826      -0.00019952      -0.02060799       0.01195669      -0.01591578      -9.30423512 F F F
 C             12.39329178       1.15650003       0.43157808       0.00000118      -0.00016514       0.00046214       0.02089158       0.00904493      -0.01338191      -9.16203247 F F F
 C             21.79830699       0.24757762      19.60215419      -0.00014211      -0.00014410       0.00010975      -0.00017359      -0.00718942       0.03690256      -9.09175349 F F F
 C             11.74984250      10.68726114      17.62459058       0.00004256      -0.00009800       0.00032887       0.02340977       0.00050373      -0.02059646      -9.06639998 F F F
 C             20.49729107       8.32453237       2.17974583       0.00011728       0.00002176      -0.00003295       0.00804721      -0.00756446       0.00617451      -9.21885267 F F F
 C             12.62807872       1.79170045      15.67271098       0.00026481       0.00013123       0.00045392      -0.00971396       0.01133640      -0.01097427      -9.12701328 F F F
 C              1.59752631      17.32254206      16.35027338      -0.00002806      -0.00025610       0.00038093       0.01034314       0.00299135       0.02337883      -9.33824383 F F F
 C             17.87959383      20.50326913      10.76584723      -0.00013645       0.00000209       0.00002599      -0.03703577       0.01456917      -0.00941883      -9.27399334 F F F
 C             17.77267492      11.09030028      15.65198529       0.00031640      -0.00006775      -0.00008035       0.00589079       0.00772381       0.01290389      -9.06642236 F F F
 C             21.39315255       2.48320733       7.05136607       0.00005914       0.00020686       0.00014116       0.00212378       0.00683294       0.00870141      -9.29432594 F F F
 C             15.22423034      15.03784099      12.36364696      -0.00043753       0.00037414      -0.00041112       0.00647835      -0.00614411       0.00498677      -9.18237142 F F F
 C              3.08452204       0.09650170       1.68982410       0.00004646      -0.00007673       0.00057870      -0.02074790       0.00649934      -0.02351424      -9.35942896 F F F
 C             14.30338982       8.53261791       3.68178460      -0.00005720      -0.00003079      -0.00011533      -0.01474758      -0.01882161      -0.01059004      -9.27982816 F F F
 C             16.39500530      19.73886243      12.60033380       0.00013049       0.00010405       0.00019719       0.00072633       0.01531464       0.01286474      -9.27294008 F F F
 C              2.99859666      15.81677737      15.03670914      -0.00011014       0.00018682      -0.00035620      -0.00184694       0.00514651       0.00908668      -9.26061417 F F F
 C              4.01338514       4.65908716       2.60248432      -0.00019315      -0.00007183      -0.00017015       0.00630369      -0.01726940       0.02415401      -9.17464361 F F F
 C             17.57278293      19.58287449      19.37302791      -0.00021313       0.00014934      -0.00042155      -0.00012601       0.00469049      -0.03695086      -9.11382902 F F F
 C              3.71343062       9.49927471       0.00242074      -0.00030372      -0.00006384      -0.00044642       0.01093849      -0.01088146       0.00265306      -9.00452261 F F F
 C             20.57253085       0.17349809       7.05825025       0.00001544      -0.00000085       0.00035940      -0.00386316       0.00388241       0.01669925      -9.21355758 F F F
 C              1.83278025      15.12046374      14.65495269      -0.00023062       0.00031984      -0.00033603       0.00088034      -0.00847191       0.02772655      -9.29329953 F F F
 C             15.15769281       6.68291360       2.28800759       0.00013624       0.00030312      -0.00071200      -0.01627209      -0.01929865       0.00232225      -9.23048588 F F F
 C             24.16515951       0.92549786      19.14387887      -0.00012582      -0.00022773      -0.00010003       0.00083668      -0.00194353       0.02673403      -9.32409162 F F F
 C             19.24426891      19.94565196       8.32328269      -0.00077019      -0.00003371      -0.00011214       0.02867009      -0.00538059       0.02956114      -9.17488808 F F F
 C             11.84132568      12.95592377      18.19408648      -0.00009508       0.00002750      -0.00015734      -0.00396202       0.00521021      -0.01590979      -9.14650573 F F F
 C             23.33378931      20.60115349      18.62400206      -0.00009532      -0.00009089      -0.00001640      -0.02869420       0.01925794      -0.02664634      -9.26854201 F F F
 C             16.42652177       2.18234631       0.85758532      -0.00012635      -0.00016415       0.00018070       0.02683208      -0.00664166      -0.01205105      -9.33702859 F F F
 C              7.20808479      19.27909038       0.10074243      -0.00007033       0.00026025       0.00006486       0.00841812       0.00833367       0.02346756      -9.08649503 F F F
 C              6.93812871       7.97040466       4.28924067      -0.00006493      -0.00025506       0.00016818       0.00957379      -0.00689163       0.01628945      -9.19099575 F F F
 C             12.47867144       6.06616113       1.49957060       0.00006354      -0.00014979       0.00064640      -0.01236943      -0.03097142       0.03298747      -8.77473057 F F F
 C             10.93507879      21.97968032      16.15148346       0.00004357       0.00023190      -0.00011514       0.02895464       0.01166451       0.00340503      -9.20180136 F F F
 C             18.13872859      15.14727122       9.49200386       0.00099390      -0.00068135       0.00076848       0.00831879      -0.00572910       0.00609784      -8.88682515 F F F
 C             20.92129018      19.17311254       5.08219076       0.00016834       0.00002073       0.00009350      -0.00673650      -0.00140345       0.00615693      -9.19311455 F F F
 C             21.24037073      16.21438172      17.05321837      -0.00040056       0.00051832      -0.00008773       0.03544135       0.00502082       0.00979694      -9.13720942 F F F
 C             18.18198594      13.23361173       5.84377897      -0.00020891      -0.00010736       0.00022069      -0.01489507      -0.00251676      -0.00741469      -9.31133262 F F F
 C             16.79849945      10.82576973       5.23424418      -0.00034411      -0.00005183       0.00010103      -0.01320502      -0.00389320      -0.02821091      -9.08363456 F F F
 C             24.20603720       9.95811771       0.66618943      -0.00008285       0.00003067       0.00040788      -0.02194945      -0.01268338      -0.05471525      -9.04317128 F F F
 C             14.84686260      17.60268623      13.63375342      -0.00006118       0.00027420      -0.00001783      -0.00337395      -0.00214010      -0.01766956      -9.23889604 F F F
 C             22.28031445      19.61740562      18.57058420      -0.00013798      -0.00001774       0.00027790      -0.01734540       0.01294684      -0.01248113      -9.11440026 F F F
 C             12.68987488      16.84680609      14.49192868       0.00009671       0.00019879       0.00008577      -0.00231406      -0.00585925      -0.02453205      -9.23215983 F F F
 C              9.43310307      10.50852045       7.77027790       0.00000164      -0.00029881       0.00011003       0.01439530      -0.00115520       0.01352234      -9.26593503 F F F
 C             12.50273294      18.14180973      15.08782664       0.00032611       0.00007427       0.00050861      -0.00055300      -0.00366743      -0.03798727      -9.17797831 F F F
 C             14.57315464      10.29368350       5.81829992      -0.00047139       0.00031944      -0.00034221       0.00523522      -0.03093205       0.00513023      -9.11452367 F F F
 C              9.17323062       6.18459508      17.51447310       0.00020982      -0.00008711       0.00025456       0.01984630      -0.00100972       0.00967316      -9.04003568 F F F
 C             17.96315011      14.60292271       8.23844319       0.00027312      -0.00023217       0.00055650       0.02529022      -0.01959929       0.01043967      -9.10685730 F F F
 C              0.78811505      20.44828746       1.96826755       0.00003816       0.00015096       0.00005106      -0.00987528       0.01203442       0.00606727      -9.22087624 F F F
 C              6.77466939      14.56054909      13.56416431       0.00022306      -0.00002082      -0.00010638      -0.00385699      -0.03707900       0.02315869      -9.30737619 F F F
 C             10.61833497       6.86348045       2.56117696      -0.00032087       0.00057221      -0.00053202      -0.01390858       0.01047844      -0.01236532      -9.06537802 F F F
 C             18.84516104      15.18057656      17.33520252      -0.00005134       0.00005883       0.00037137       0.04221147       0.01790653       0.02718823      -9.13923683 F F F
 C              9.42710281       7.19932506       3.18194012      -0.00024908       0.00024152      -0.00027032      -0.01011343       0.01684598      -0.00531666      -9.03485095 F F F
 C              4.02996269      17.73559284      16.11231097       0.00003890      -0.00019135       0.00012678       0.01327492      -0.00493587       0.02283072      -9.25832375 F F F
 C             16.24000598      16.02055559      12.35824921      -0.00019424       0.00003850       0.00008568       0.02446417      -0.01816633       0.04273502      -9.07420654 F F F
 C              3.25164187       9.12241512       6.20582213       0.00007249       0.00022697      -0.00022634       0.00448960      -0.00475389       0.00252492      -9.13774761 F F F
 C              2.08467563       1.50793767      18.63306863      -0.00013932      -0.00006514      -0.00034827       0.00506208      -0.00345942       0.00805088      -9.07803320 F F F
 C              4.48435841      11.65525464      10.32845197      -0.00001751       0.00021544      -0.00018123      -0.00445929      -0.03532298       0.03126619      -9.34349910 F F F
 C             19.51794396      12.89494147       3.82874747      -0.00070899       0.00007083      -0.00024128       0.00786545      -0.00366045       0.00149188      -9.25764919 F F F
 C             13.49442082      18.45131813      19.23667220      -0.00001419      -0.00007421      -0.00024433      -0.00054218      -0.01071145       0.01819904      -9.35063555 F F F
 C              7.15635677      20.71329130      16.76263550       0.00006926      -0.00005172      -0.00041104       0.01155300       0.01425949      -0.00952761      -8.98039437 F F F
 C              3.24029401      12.86902057      12.02400190       0.00001496       0.00004937      -0.00006768      -0.02308033       0.03532490      -0.02783381      -9.28676287 F F F
 C             20.75288427       9.70682738       2.24058531      -0.00006391       0.00006646       0.00014056       0.01651090      -0.00782531       0.01140331      -9.21215717 F F F
 C              4.13069195       3.93392739      18.69193496      -0.00024217       0.00009129      -0.00053452       0.00149329       0.00056835       0.02193072      -9.02068475 F F F
 C              6.69750786      15.65286310      14.49087246       0.00020192      -0.00030620       0.00024265       0.00018652      -0.03725074       0.02719957      -9.27675092 F F F
 C              3.85791183      18.98883888      16.71824220       0.00011652      -0.00022176       0.00024892       0.01640973      -0.01785926       0.06021225      -9.23956654 F F F
 C             17.99757016      11.06891715       4.51561940      -0.00031371      -0.00021444       0.00013405      -0.01067137      -0.00136646      -0.02907566      -9.11493426 F F F
 C             20.08378024      18.66751020       6.17782424       0.00005367      -0.00011617       0.00001432      -0.01358941      -0.00008163      -0.00174488      -9.15210427 F F F
 C             10.26297581       3.55627109      16.79541298       0.00029734       0.00004395       0.00068118      -0.00404450       0.00732360       0.01729941      -9.11385481 F F F
 C              2.87855355      16.94561681      15.86221062      -0.00005219      -0.00006877       0.00000821       0.01003542       0.00068654       0.02204897      -9.28192678 F F F
 C             16.35100298      13.82085768      10.45717006      -0.00007730      -0.00004071       0.00021445      -0.01585283       0.02357028      -0.01755898      -9.14860787 F F F
 C             18.82906194      17.39879880       8.64503337       0.00041815      -0.00036163       0.00055933       0.00134778      -0.00572290       0.00148596      -8.93321649 F F F
 C             19.92881963      19.17578227      19.00534061      -0.00032062       0.00037610      -0.00037831       0.00533421      -0.00930586       0.01733771      -9.06117912 F F F
 C              9.30721972      12.71307157      11.46087261       0.00021453      -0.00047128       0.00021319       0.00598750       0.01822385      -0.01992578      -9.30609915 F F F
 C             21.30253890      18.33585986       4.04339307       0.00005315       0.00017314      -0.00018860      -0.00189104      -0.00107150       0.00897448      -9.08125027 F F F
 C              4.50435951       9.50838031       6.72342322      -0.00001125       0.00041658      -0.00026268       0.00430930       0.00766636       0.00126441      -9.23890386 F F F
 C             17.44658330       1.19532865      11.63113080      -0.00018734       0.00019222      -0.00031559       0.00060779       0.01743599       0.01624901      -9.34233519 F F F
 C              0.08292642      20.23858665      18.10577046      -0.00011937      -0.00008679      -0.00014479      -0.03581170       0.02601835      -0.04760793      -9.23923960 F F F
 C              2.74815675       3.89733535      19.07671212      -0.00012217      -0.00006861      -0.00009526      -0.00363332      -0.00664325      -0.00830451      -9.12404540 F F F
 C              0.51422708      17.85419348       0.91426878       0.00001977       0.00012179      -0.00034031      -0.00324546       0.01377133       0.01716396      -9.12123357 F F F
 C             17.79920860       2.55507038       0.97555821      -0.00013587      -0.00011107       0.00014464       0.02114036      -0.01575203       0.01418468      -9.34597420 F F F
 C              8.00968044      12.00390987      18.69031706      -0.00025165      -0.00013632      -0.00069757       0.01168567      -0.02983686      -0.00006535      -9.34210888 F F F
 C             18.41998465       0.26808439       0.36782831      -0.00031285       0.00001485      -0.00004905       0.01316487      -0.00183145      -0.02595858      -9.15368582 F F F
 C             10.48330915      21.90431518       0.24589675       0.00004308      -0.00009917       0.00077986       0.01334904       0.02585559      -0.03452171      -9.18551046 F F F
 C             20.77937541      21.28125556      19.57793384      -0.00022954       0.00003141       0.00014307      -0.00178981      -0.00549305       0.01487928      -9.11772644 F F F
 C              2.43094452       6.91568031       3.66073235       0.00042778      -0.00026178       0.00026676      -0.00154017       0.00114228      -0.02753230      -8.65602523 F F F
 C             15.79277019       4.47552418       1.47144065       0.00010941       0.00009489      -0.00050319       0.00736499      -0.00749015      -0.01953135      -9.23468822 F F F
 C              0.45307063      16.50074282      16.10667693      -0.00022236       0.00001475       0.00009331       0.00650971       0.01472762       0.00720300      -9.26420971 F F F
 C              7.46549541       8.04841201      18.42525712      -0.00009029      -0.00018220      -0.00005450       0.01924261      -0.02458843      -0.02639710      -9.13241397 F F F
 C              6.05915813       1.09707819      17.57284020      -0.00017158       0.00018740      -0.00086961      -0.00276891       0.00593264      -0.00272987      -9.13350111 F F F
 C             21.52222116       7.42889890       1.63109194       0.00017813      -0.00006621       0.00014239       0.01726665      -0.02249893       0.05390963      -9.29443099 F F F
 C             16.21959146      12.32579602      16.98210766       0.00002485       0.00017745      -0.00069990       0.01123460       0.04410319      -0.01192926      -9.10787752 F F F
 C              6.51745385      18.13695685      15.98457355       0.00007123      -0.00024188       0.00006701      -0.00117790       0.03856922      -0.08359249      -9.17503163 F F F
 C             15.82127061       0.37453690      13.27991921      -0.00045416       0.00017074      -0.00067091      -0.00858632       0.01830428       0.00803092      -9.26506996 F F F
 C             11.29247055      18.39777520      15.72766624       0.00029479       0.00006294       0.00053480       0.00895412       0.00462957      -0.02857124      -8.90291243 F F F
 C             18.85318625       6.55127306       2.17379465       0.00022105      -0.00006311      -0.00004575      -0.01309888      -0.00751137      -0.01353203      -9.22072220 F F F
 C              0.75003609       7.05758368       0.45661085       0.00004819      -0.00022583       0.00052226      -0.00536203      -0.02444419       0.01385624      -9.09023320 F F F
 C             14.13558613      13.18950069      11.20250381      -0.00015142       0.00012693      -0.00018000       0.01509655      -0.02681106       0.01664303      -9.12122552 F F F
 C              4.26596002      15.44028683      14.52970852       0.00000176      -0.00001836      -0.00014465      -0.00516971      -0.01084344       0.01071452      -9.32824418 F F F
 C              8.01557075      14.07807633      13.07809615       0.00025281       0.00005511      -0.00016382      -0.00202760      -0.00390440      -0.00911063      -9.28590489 F F F
 C             11.45817427       7.08341396      16.75879603       0.00002195       0.00007087      -0.00043410       0.01292450      -0.00691610      -0.02152914      -9.25613547 F F F
 C             21.08119865      19.97938577      19.09047963      -0.00024554       0.00014212      -0.00003733      -0.00421738      -0.00584047       0.02562367      -9.00607157 F F F
 C             24.01586987      13.76361304      13.81569323      -0.00016803       0.00002558      -0.00002696      -0.00917706       0.01020404       0.00131374      -9.28170377 F F F
 C             14.80127684       5.43658428       1.68436532       0.00021095       0.00025051      -0.00075830       0.00078424      -0.01028887      -0.01948050      -9.32096276 F F F
 C             14.55177837      18.94707064      14.05202629       0.00006282       0.00023420       0.00009841      -0.00821949       0.00280880      -0.03025427      -9.26433076 F F F
 C             24.08252192       4.11259999       5.00319580      -0.00031657       0.00021496      -0.00023234       0.00434765      -0.01553357      -0.01269993      -9.31226969 F F F
 C             19.83684056      10.59543926       2.92054639      -0.00043695       0.00005243      -0.00023684      -0.00264598      -0.00370280      -0.01838788      -9.27238287 F F F
 C              9.67291624      19.54224957      19.66416187      -0.00014272       0.00020468      -0.00037113       0.02117142       0.02276981       0.00342083      -9.17246854 F F F
 C              8.29750663       6.48541190       2.82579782      -0.00008800      -0.00037494       0.00048116      -0.00592590       0.01146948      -0.01324689      -9.15742326 F F F
 C             10.47908994      11.03741031      18.04153948       0.00004558      -0.00027234       0.00055121       0.01710132      -0.00431958      -0.03680778      -9.08226242 F F F
 C             20.55510426      20.90633618       6.50777830      -0.00015250      -0.00003039       0.00028490       0.00839911      -0.00090947       0.02035542      -9.16937729 F F F
 C             17.22258814      12.73779030       6.81146524      -0.00036373       0.00002978       0.00020956      -0.00882703      -0.00712120      -0.00050305      -9.10982081 F F F
 C             22.29952059      18.32137564      17.94601595      -0.00011088      -0.00000613       0.00042178      -0.01015210       0.02257228      -0.02053053      -9.23689681 F F F
 C             16.58787281       6.59448045      13.77724514       0.00018898      -0.00008396      -0.00010564      -0.02594633      -0.00205488       0.00039988      -9.12680320 F F F
 C             12.40690861      19.40660986      19.48301298      -0.00008535       0.00002027      -0.00051114       0.01290830      -0.00265651       0.01271153      -9.16298864 F F F
 C              6.88432960      12.63675007      11.44040863       0.00015349       0.00037738      -0.00041074      -0.00292484       0.02392817      -0.02347969      -9.28127144 F F F
 C             18.95284454       1.98189026       9.88992040       0.00036925       0.00021983       0.00022924      -0.01284881       0.01486052       0.00014067      -9.27653230 F F F
 C             13.23694770       9.82171146       5.58696150      -0.00030200       0.00004264      -0.00018936       0.00683630      -0.03126854       0.01292695      -9.05042035 F F F
 C              5.00129978       3.00713231      18.24438191      -0.00034947       0.00026783      -0.00117009       0.00081430       0.01182284      -0.02381224      -8.99520466 F F F
 C              5.73101496      10.61390792       8.50638906      -0.00000287      -0.00013355       0.00005306      -0.00142001       0.01206341       0.00233676      -9.31025975 F F F
 C             20.20598675       2.06017987       0.66198146      -0.00023260      -0.00008825      -0.00028559       0.00894714      -0.00913345       0.00334959      -9.07241149 F F F
 C             24.13504562       0.12804075       3.38230938       0.00023939      -0.00013015       0.00076387      -0.00040303       0.00144770       0.01277778      -9.37019061 F F F
 C              7.47841692      14.88445382      19.05705612      -0.00001364      -0.00010742       0.00036164      -0.01637967      -0.01269222       0.02749697      -9.13747291 F F F
 C              8.07426866      13.12311263      12.01725166       0.00021579       0.00009774      -0.00022121       0.00169362       0.01863891      -0.02712370      -9.28596671 F F F
 C              9.44139378       9.82148930       6.52883699      -0.00008467      -0.00024168       0.00010346       0.01593411       0.00848878       0.01304536      -9.30425854 F F F
 C              9.48299767       0.01433047      16.57098833      -0.00002987       0.00024234      -0.00041259       0.02970413       0.00154629       0.02870313      -9.09277429 F F F
 C             13.21764528      17.05814794      18.96612052       0.00004061      -0.00014854       0.00027959      -0.02514102      -0.00394993      -0.00115998      -9.14571754 F F F
 C              2.06560337      12.30511855      11.50806349       0.00000950      -0.00025406       0.00019658      -0.02101853       0.02617417      -0.02219906      -9.24079657 F F F
 C             20.47081058       3.41358435       1.00826134      -0.00009063      -0.00013329      -0.00024389      -0.00888229       0.00244864      -0.04573475      -9.16137173 F F F
 C              9.95698358      15.31658322      18.88982268      -0.00002395      -0.00000311      -0.00007361      -0.03764574       0.00564362       0.02333840      -9.07665298 F F F
 C             19.62706536       5.54636872      10.40408590       0.00040953       0.00020474      -0.00012017       0.03474207      -0.01194691       0.03079432      -9.14000223 F F F
 C              1.76571304       2.88001849      19.09044366      -0.00012070      -0.00012064      -0.00010604      -0.00144391      -0.00731966      -0.01958182      -9.13837472 F F F
 C             15.90908278      17.89255445      18.93285083      -0.00002697      -0.00008455      -0.00012599       0.00064501      -0.00112400       0.01159690      -9.29443449 F F F
 C             23.50566172       5.50753601       0.69958915       0.00017398      -0.00033112       0.00064315      -0.00044153      -0.03150940       0.01952480      -9.19320417 F F F
 C              8.16300860       5.25266956       2.07980044       0.00005426      -0.00035798       0.00062440      -0.00914538       0.00460130      -0.02074246      -9.05252010 F F F
 C              9.41420084       8.20572166       4.20471400      -0.00015959      -0.00001964      -0.00003035       0.00291360       0.01169110       0.00241831      -9.33843634 F F F
 C             22.30284624      16.55172749       2.03836525       0.00045258      -0.00000607       0.00002539      -0.01468731       0.02058350      -0.01208702      -9.15011959 F F F
 C             15.12181469      11.17981343       6.79945920      -0.00053669       0.00029630      -0.00031150       0.00419026      -0.01163206      -0.01110721      -9.03390586 F F F
 C             11.07763626       8.37253204      17.21469639      -0.00000733      -0.00000730      -0.00025077       0.02630760      -0.00712334      -0.01502037      -9.27257106 F F F
 C             10.49929554      13.21471294      12.03932988       0.00018643      -0.00043243       0.00022968       0.00608799       0.02009274      -0.02228646      -9.25352427 F F F
 C             14.22890631      21.14508118       0.06780567      -0.00011025      -0.00018476       0.00001642       0.01755204      -0.01121040       0.04005684      -9.32837909 F F F
 C             17.44748902       7.77227468      13.74037646       0.00039762      -0.00025410       0.00010955      -0.04426334       0.01183447      -0.02441457      -9.09126619 F F F
 C             15.86280422       8.96561382      15.35460864       0.00035279      -0.00014795       0.00010389      -0.00356606       0.00353271       0.00909859      -9.23966621 F F F
 C             22.25248610      18.78150196       3.11611480       0.00019936       0.00007648      -0.00011971       0.00707864       0.00183249       0.02330464      -9.08011507 F F F
 C             15.22426819      20.17670458      19.59224210      -0.00012021      -0.00009177      -0.00027786       0.01142683      -0.01327663       0.03033345      -9.23302347 F F F
 C             15.99080074      17.34382422      12.83128064       0.00011796       0.00006264       0.00035575       0.03582084      -0.00831235       0.04314360      -9.20207376 F F F
 C              9.25573719       1.38727087      16.86184816       0.00014439       0.00009462       0.00045505       0.00947006       0.00216239       0.01552939      -8.91425787 F F F
 C             18.13683878      19.16804623      10.35239552      -0.00006159      -0.00015899       0.00028972      -0.01936571       0.01298942       0.00213373      -9.26038087 F F F
 C             18.57406025      15.31782205       7.16609549       0.00017092      -0.00022251       0.00039953       0.01733073      -0.01694758       0.01006904      -9.21958239 F F F
 C              3.88526245       7.27539824      19.62488333      -0.00009957      -0.00003226       0.00007380      -0.00286126       0.01090263      -0.01400961      -8.97674051 F F F
 C              2.04927219       8.03430035       4.47676731       0.00032601      -0.00012463      -0.00000466       0.00549034      -0.02080950       0.00256096      -8.64145994 F F F
 C              8.18170261      10.77031688       8.42828382       0.00004881      -0.00055352       0.00027366       0.00902379       0.01852032       0.00067743      -9.34157941 F F F
 C             12.39241966       4.49695565      15.93532566       0.00020049       0.00008989      -0.00011740       0.00780220      -0.00265523       0.02736048      -9.18284636 F F F
 C             10.42590456      12.45235318      18.34284770      -0.00007286      -0.00015158       0.00016418       0.00336573      -0.01037566      -0.00778990      -9.00956382 F F F
 C              9.48677021      10.05926179      18.08770818      -0.00004854      -0.00026370       0.00010603       0.02562962      -0.01476249      -0.03199565      -9.15955632 F F F
 C              2.57432730      19.43801442      17.14623672       0.00012535      -0.00028677       0.00041260       0.01177811      -0.01467487       0.06356255      -9.37601593 F F F
 C              0.60391748       2.35118837       3.55172550      -0.00002519      -0.00007422       0.00045685       0.01273350      -0.01163299       0.01772737      -9.30132302 F F F
 C              2.06397794       9.70896868       8.22630050       0.00021175      -0.00047923       0.00025714      -0.00837624      -0.00950611      -0.00323898      -9.24664168 F F F
 C             17.43122747      14.68074627      10.63632810       0.00009715      -0.00029613       0.00047907      -0.01156828       0.00794844      -0.00805817      -8.70806163 F F F
 C             24.10121586       1.43293407       3.93239331       0.00007596      -0.00007329       0.00062511       0.00571521      -0.00439005       0.01520528      -9.24129093 F F F
 C              3.99247215      17.79532700       0.10709498      -0.00006098       0.00027061      -0.00021717      -0.00753315       0.01974978      -0.00814356      -9.08463560 F F F
 C             13.37609646      19.23600353      14.81751357       0.00020641       0.00017082       0.00033949      -0.00216897      -0.00478727      -0.03251917      -9.26069467 F F F
 C             24.19470875      11.36322866       0.43896919      -0.00034864      -0.00004886      -0.00011919      -0.01573175      -0.00428773      -0.03205694      -9.06285182 F F F
 C             23.39287386       6.98549972       7.53244782      -0.00004100       0.00035155      -0.00062407      -0.00525140      -0.00715612      -0.02804182      -9.13682547 F F F
 C             12.81620345      20.77214829      19.73467660      -0.00006858      -0.00015572       0.00010009       0.01705409       0.00370979       0.00103749      -9.18757322 F F F
 C              1.70832350       1.89814800       2.76695474      -0.00006768      -0.00008458       0.00044148      -0.00499619      -0.00056453      -0.00398872      -9.21735317 F F F
 C             22.01108118      11.59437223       1.41343208      -0.00030908       0.00008741       0.00011483       0.01069147       0.00104308       0.01152270      -9.24019609 F F F
 C             17.68927215      18.16552331      11.24497409       0.00033243      -0.00021233       0.00052055      -0.00548123       0.01622080       0.01423473      -9.13340450 F F F
 C             19.98413919      16.47930180       5.03043357       0.00006919      -0.00004276      -0.00008135      -0.01956258       0.00302574      -0.01387500      -9.33083329 F F F
 C             15.56051261      10.14566546      16.11122029       0.00009829       0.00009492      -0.00035041       0.01390029       0.01197756       0.01604472      -9.35526568 F F F
 C             17.25548679       2.55262715      12.07976187       0.00012055       0.00016360      -0.00017986       0.02348316       0.01453798       0.03056753      -9.24100551 F F F
 C             15.02190674      21.34136850      13.87933186      -0.00018279       0.00021715      -0.00028682      -0.00776124       0.01502905      -0.00070426      -9.33559177 F F F
 C             22.65263635      14.83880963      15.52198939      -0.00034377       0.00038238      -0.00020135       0.01518128      -0.00141459       0.01170524      -9.30903959 F F F
 C             23.12149366      21.92293768      19.14087329      -0.00013119      -0.00018028       0.00003254      -0.00473094       0.00202057       0.02579870      -9.35971432 F F F
 C              8.61231367      20.80930895      16.55197190       0.00001008       0.00020030      -0.00076833       0.02756689       0.01123124       0.01189392      -8.87403534 F F F
 C              8.31456112       2.35833477      17.25854966       0.00009108       0.00011447       0.00033385       0.00456681      -0.00066246       0.01540413      -9.13852251 F F F
 C              6.35030088       3.40770232      17.96194926      -0.00029793       0.00027710      -0.00094326      -0.01265949       0.02124328      -0.05849006      -9.17925529 F F F
 C             10.54068471       4.47178600       1.38152662       0.00011206      -0.00004257       0.00058865      -0.00943137      -0.01663434       0.00278159      -8.95454072 F F F
 C              6.33886649      19.48218603      16.51730540       0.00008301      -0.00015420      -0.00009989       0.00549275       0.02658254      -0.04687335      -9.02131912 F F F
 C             23.96693442      18.39538846       1.60908000       0.00013315       0.00021648      -0.00024565      -0.01010717       0.01532492       0.00861397      -8.98340591 F F F
 C              5.63198816      11.49010333      19.13181702      -0.00019695      -0.00009275      -0.00013450       0.00579513      -0.01887719      -0.00482619      -9.34058872 F F F
 C             17.50241293       6.14356302       2.15443157       0.00017361       0.00007012      -0.00037372      -0.00916413      -0.02805626       0.03167007      -9.27410264 F F F
 C             16.79744517       8.30287387       3.25865669       0.00004383       0.00001466      -0.00029913      -0.01646655      -0.02663242       0.00254670      -9.12223427 F F F
 C              8.40956926       3.02046729       1.16205566       0.00016234      -0.00005522       0.00070041      -0.02556266      -0.00517576      -0.00868384      -9.15083812 F F F
 C             20.18919555      15.25311327      16.85305941      -0.00023132       0.00038215       0.00016848       0.04674231      -0.00173706       0.02819324      -9.16897688 F F F
 C             16.04199278       0.84658627       0.51622344      -0.00019454      -0.00013911       0.00006794       0.02569949      -0.00294892      -0.01915301      -9.26784520 F F F
 C              6.95713708       9.63878436       6.60466964      -0.00004281       0.00013102      -0.00007976       0.00838769       0.02267861      -0.00024843      -9.29733683 F F F
 C             18.84739084       3.29810720      10.40933450       0.00037665       0.00026765       0.00006137      -0.02083514       0.01553339      -0.01342686      -9.28951768 F F F
 C              0.01195038      14.13423079       0.17473406      -0.00006295      -0.00010147      -0.00022603      -0.01026826       0.01443683       0.01447417      -8.99722098 F F F
 C             14.02822230      15.31913672      13.08667879      -0.00049323       0.00073886      -0.00090172       0.00247496      -0.02212227       0.00549857      -9.24149110 F F F
 C             11.62427549      20.80496465      15.80339287       0.00012789       0.00020713       0.00006623       0.03125977       0.00730662       0.00712715      -8.92755159 F F F
 C             22.16688988      21.52159574       4.77551739       0.00009199       0.00001156       0.00046375      -0.00962873       0.00077719       0.00485723      -9.21306627 F F F
 C              1.22044335       5.70011381       0.14193148       0.00002703      -0.00024571       0.00038837      -0.01329850      -0.01722079      -0.01602573      -9.15911848 F F F
 C              0.54924663       6.34885576       4.99416747       0.00025459      -0.00001260       0.00002801       0.03364610      -0.04017352       0.00527430      -9.12105562 F F F
 C              6.96199602       2.75734179       1.31472084       0.00005494       0.00008221      -0.00003892      -0.01966972      -0.01126515      -0.00754872      -9.18975314 F F F
 C             17.14504813       4.83907592       1.67323874       0.00010370       0.00004931      -0.00030461       0.00287351      -0.01897470       0.01136147      -9.29967802 F F F
 C             14.48198506      11.51055247       7.96563093      -0.00012108       0.00007923      -0.00007621       0.00143254       0.03033189      -0.02661246      -9.13369272 F F F
 C             11.08082074       4.68199263      16.55983345       0.00012104       0.00002872      -0.00015426       0.01077086      -0.00404331       0.02612050      -9.12968359 F F F
 C             22.18321460      11.23686761      11.82867750       0.00009261      -0.00017693      -0.00006546      -0.00960770      -0.02111575      -0.00291548      -8.85405219 F F F
 C              9.69123954      16.70388354      19.15966198      -0.00013937       0.00014322      -0.00070596      -0.02822157       0.01823808      -0.02239658      -9.07928769 F F F
 C              2.66686992      17.64675420       0.27792560      -0.00013267       0.00026781      -0.00073713      -0.01168926       0.03483959      -0.03269089      -9.06880753 F F F
 C             23.08917804      21.20651588       3.73135043       0.00006753      -0.00001848       0.00036140      -0.00254636       0.00312323       0.01020227      -9.14524383 F F F
 C             13.44401798       5.08880862       1.38014532       0.00013472       0.00012815      -0.00043344      -0.00343617      -0.01802328       0.01320048      -9.13163532 F F F
 C              8.19359304       9.35038541       5.96584894      -0.00006509      -0.00012910       0.00004595       0.01486360      -0.00205397       0.01871047      -9.30064596 F F F
 C              6.67615410      12.47001299      18.95667738      -0.00019240      -0.00012150      -0.00037117       0.00609498      -0.02396402      -0.00210295      -9.23400118 F F F
 C              4.46743059      12.50770219      11.45348608       0.00002415       0.00044549      -0.00037560      -0.01553380       0.00794770      -0.00455405      -9.26630490 F F F
 C             11.89725677      21.82694988       0.18389266      -0.00001440      -0.00023456       0.00077677       0.01981056       0.02176748      -0.04308450      -9.12287279 F F F
 C              0.97492758      11.90285027       0.09742288      -0.00034208      -0.00004556      -0.00018520      -0.00119089      -0.00145081       0.02946739      -9.08562739 F F F
 C             16.05093400       4.16814856      13.53727774       0.00025865      -0.00000828      -0.00008924      -0.01085222       0.00750335      -0.01135305      -9.32494399 F F F
 C             24.15967902      11.00090045      10.68825893       0.00005357      -0.00042747       0.00016982      -0.01034943      -0.00545138      -0.00384925      -9.06432352 F F F
 C             13.92673677      11.58223637      17.29710055      -0.00015135       0.00037416      -0.00076957       0.01916032       0.01615502       0.00375696      -9.16032159 F F F
 C              3.17491648      13.80186971      13.08293098      -0.00001814       0.00004360      -0.00007035      -0.01581199       0.01448973      -0.00724414      -9.33814087 F F F
 C             14.20452502      16.09694762      18.67104077       0.00007448      -0.00012655       0.00014301      -0.02222288       0.01418902      -0.03824650      -9.29760796 F F F
 C             11.94230912      10.71950560       7.66443772      -0.00001467      -0.00007407      -0.00010597       0.01377914      -0.00522868       0.00763375      -9.19079482 F F F
 C             17.86029406       4.98131042      12.06137805       0.00025329       0.00015344      -0.00019159      -0.00583910       0.01015882      -0.00761319      -9.15826484 F F F
 C             14.12086301       7.53643075       2.68810986       0.00004407       0.00011063      -0.00027550      -0.01671867      -0.00331027      -0.02711066      -9.09607022 F F F
 C             21.92676139      10.19537005       1.59432053       0.00001213       0.00010112       0.00044826       0.02033168      -0.00455930       0.01692570      -9.29357652 F F F
 C              3.65155461       5.98276930      19.38143948      -0.00014913      -0.00005566      -0.00018468      -0.02124885      -0.02188536      -0.00006434      -8.90351638 F F F
 C              3.44808943       0.99834791      18.14664679      -0.00008811      -0.00000386      -0.00037091       0.00170414       0.00668074      -0.00047529      -8.95377265 F F F
 C              9.76500144       8.65332161      17.73827484       0.00002229      -0.00019424       0.00005503       0.02938155      -0.01146018      -0.02163522      -9.32355491 F F F
 C              1.56916321       8.25746673       0.36858642      -0.00010062      -0.00006252       0.00033658      -0.00146379      -0.01360746      -0.00020193      -8.89999201 F F F
 C              6.15275256      21.74007011      17.22633112       0.00007468      -0.00005556      -0.00011561       0.00950874       0.00042708       0.01866731      -8.83161391 F F F
 C             24.38435226       8.02446332       7.52962789       0.00007443       0.00014756      -0.00027129      -0.02405654       0.00718948      -0.03378338      -9.14155323 F F F
 C              0.85659317      12.68934507      12.07625865      -0.00001470      -0.00038998       0.00026082      -0.01907342       0.00824082       0.00175609      -9.14318422 F F F
 C              6.03393419       6.01252342       2.80351005      -0.00000364      -0.00048077       0.00030486      -0.00218627      -0.00525464       0.00719929      -9.12583453 F F F
 C             23.55886141      18.00309615      17.39695417      -0.00016221      -0.00004965       0.00029855      -0.01537181       0.02920665      -0.03511580      -9.24814588 F F F
 C             19.76334014       1.71884427       8.75338508       0.00052740       0.00014372       0.00043781       0.01396027       0.00653412       0.02334252      -9.32831776 F F F
 C              7.88877005       0.79644559       0.67069742      -0.00001912       0.00036391      -0.00064751      -0.00680641      -0.00107628       0.00660891      -9.13492224 F F F
 C             17.95511146       9.94470814      14.81943399       0.00041059      -0.00020379       0.00008394      -0.02063242       0.01108572      -0.00762376      -9.06822394 F F F
 C             19.92013110      14.27348745       3.87434082      -0.00055715       0.00012612      -0.00027186       0.01250630       0.00075004       0.00961201      -9.29141165 F F F
 C             20.81577161      16.98496798       3.98640588      -0.00014024       0.00015301      -0.00034527      -0.00005747       0.00190177      -0.00030829      -9.31380116 F F F
 C              6.99945414       6.93708380       3.32172067      -0.00005763      -0.00066126       0.00065917      -0.00166888      -0.00238485       0.00443284      -9.11493444 F F F
 C              6.64578731       1.38718328       1.02773588       0.00000174       0.00023783      -0.00033471      -0.01105960      -0.01439357       0.01579201      -9.08904382 F F F
 C              9.11722158      15.72013843      14.51520625       0.00025737       0.00001310      -0.00003550       0.00149313      -0.00082310      -0.00076704      -9.25027733 F F F
 C             17.28863319      18.26473141      18.91522468      -0.00010736       0.00008599      -0.00020305       0.00206358       0.00424112      -0.01197735      -9.32456356 F F F
 C             15.59639644       1.71608892      13.63251864      -0.00034978       0.00012886      -0.00063740       0.01017766       0.01285174       0.02842961      -9.18550532 F F F
 C             10.69346213       9.58551360       5.86582886      -0.00013299      -0.00030790       0.00013704       0.01193411       0.01672334       0.00080934      -9.26033257 F F F
 C             11.57841227       3.45360565       0.99015093       0.00004329       0.00008335      -0.00001872       0.00786995      -0.01402199       0.01420434      -9.16900513 F F F
 C              8.34023399       4.93753050      17.62580281       0.00032157      -0.00005896       0.00079661       0.00239151       0.00923373       0.01682433      -8.95938551 F F F
 C             14.05477214       2.82356886       0.88083512       0.00001620       0.00004480      -0.00045998       0.02532099      -0.01006457       0.00918980      -9.31963159 F F F
 C             18.17331380       8.77931871       3.18801778      -0.00000712      -0.00004354      -0.00032252      -0.01773795      -0.00910982      -0.04248168      -9.12141653 F F F
 C              0.92935376       8.28784515       6.61824589       0.00035063      -0.00012348       0.00004240      -0.01574066       0.00121442      -0.02252387      -9.10501138 F F F
 C              3.24246953      10.78149235      19.67009159      -0.00030102      -0.00003299      -0.00021978       0.00493316      -0.00771214       0.00729288      -8.87249848 F F F
 C             19.02745301      16.71352739       7.32201748       0.00036446      -0.00026442       0.00037117       0.01360310      -0.01281501       0.00285199      -9.16242106 F F F
 C             16.16665801      14.42352029      17.86476236       0.00031495      -0.00025478       0.00040969      -0.00138367       0.02995914       0.00949312      -9.13051459 F F F
 C             18.27712563       0.91583943      10.52339257       0.00004064       0.00020906      -0.00004988      -0.02387891       0.01701100      -0.00234027      -9.29832387 F F F
 C              5.59595184      13.98458457      13.05313009       0.00014487       0.00028927      -0.00036905      -0.01044521      -0.01244194       0.00353484      -9.29734907 F F F
 C             21.26927349      20.55346064       5.33284101       0.00009525      -0.00000863       0.00038358       0.00435139      -0.00331683       0.01503325      -9.06449490 F F F
 C             20.54288938       6.57339481      10.05594228       0.00040495       0.00019330      -0.00014297       0.04457565      -0.02223183       0.03925011      -9.06933981 F F F
 C             17.01359928      13.48564275      17.23547714       0.00024530      -0.00018502       0.00020508       0.00831556       0.04660561       0.00267147      -9.07174303 F F F
 C             10.55518056       5.98428054      16.94006621       0.00006908       0.00002552      -0.00035762       0.01749902      -0.00545838       0.00784383      -9.25324369 F F F
 C             20.80750724      14.77492342       2.89525900      -0.00044780       0.00019359      -0.00029076       0.01498389       0.00635950       0.01466805      -9.23572590 F F F
 C             17.08835673       8.86813377      14.64319631       0.00044337      -0.00026721       0.00019882      -0.02323880       0.01080727      -0.01152656      -9.24689681 F F F
 C             19.72608262      11.36807230      14.46632890       0.00024511      -0.00001091      -0.00000422       0.00412786      -0.00417992       0.00520798      -9.05332609 F F F
 C             12.84996034       7.24786967       2.20777151      -0.00006939      -0.00005704       0.00022149      -0.01977170       0.01736162      -0.04515827      -8.80128376 F F F
 C              5.03239667       9.18915608      19.41326595      -0.00022456      -0.00007945      -0.00011454       0.01891716      -0.01841012       0.00451840      -8.97292670 F F F
 C              3.99572039       2.38242565       1.93844394      -0.00011677      -0.00014073       0.00030400      -0.00383531      -0.01214132       0.01233128      -9.11283786 F F F
 C              0.84892023       9.74108087       9.00087013       0.00022616      -0.00053300       0.00029580      -0.02351257       0.00949557      -0.02306019      -9.14291715 F F F
 C             20.13101745      11.99329013       2.92716706      -0.00077274       0.00013807      -0.00038245       0.01018949      -0.00052384       0.00264229      -9.22706256 F F F
 C             23.01061027      12.27957036      12.23882395      -0.00010715       0.00005677      -0.00022576      -0.01101695      -0.01221380      -0.00333495      -8.87601672 F F F
 C             22.32181423       4.79174775       7.18386758      -0.00021473       0.00044069      -0.00050314      -0.01762686       0.00864537      -0.02800374      -9.30188274 F F F
 C              7.32099229      16.35781878      19.27415375      -0.00007295      -0.00002827       0.00054611      -0.01564238       0.01202849      -0.00615211      -9.06617243 F F F
 C              5.71884530       9.21842846       6.03076492      -0.00002688       0.00047678      -0.00029918       0.00754689       0.01012790      -0.00048556      -9.34373146 F F F
 C              2.96017146       8.28865601       0.16110025      -0.00018095      -0.00005538      -0.00011447       0.00128184      -0.00516146      -0.00775373      -9.10269201 F F F
 C             19.10405570      10.12356466      14.08210927       0.00023136      -0.00002101      -0.00012326      -0.02437780       0.00953567      -0.01668654      -9.07006017 F F F
 C             13.77977906      14.71591848      18.38230738       0.00014436       0.00000509      -0.00025169      -0.03074750       0.02286025      -0.04798592      -9.16436834 F F F
 C             21.37746853       1.18464930       6.47318546       0.00002687       0.00007201       0.00037598      -0.01236043       0.00814665       0.00685074      -9.29229511 F F F
 C             12.88814043      14.49364931      12.88505533      -0.00026814       0.00059674      -0.00074321       0.00875008      -0.04489392       0.03445658      -9.24080152 F F F
 C             17.98089670       3.62257872      11.50942562       0.00024862       0.00019280      -0.00006875      -0.00118991       0.01391219       0.00366877      -9.31360182 F F F
 C             22.52437507      15.93865019      16.43276643      -0.00044099       0.00046987      -0.00025624       0.02122385       0.00560290       0.00358107      -9.32406366 F F F
 C             11.64727168      14.84486981      13.49427765       0.00005080       0.00013655      -0.00011667       0.00597624      -0.04392463       0.04476082      -9.24955936 F F F
 C             21.44016572       5.07199193       8.28739645       0.00009141       0.00038052      -0.00032060      -0.00656836       0.00490698      -0.01430558      -9.33640669 F F F
 C              1.85300328      10.81042242       0.10193813      -0.00026905       0.00001356       0.00006212       0.00081020      -0.00709769       0.02547760      -9.20839626 F F F
 C             10.45417896      14.18931438      13.08631058       0.00021096      -0.00031991       0.00022511      -0.00064285      -0.01619274       0.01165245      -9.30522133 F F F
 C             10.86698884      17.49574442      19.21593393      -0.00013276       0.00015479      -0.00065472      -0.01661574       0.01043816       0.00166219      -9.11922812 F F F
 C              0.98672938       0.55456186      18.65140525      -0.00012619      -0.00011037      -0.00031972      -0.00278362      -0.00125333       0.01520993      -9.29713431 F F F
 C              3.18919794      20.73423375       1.23195602       0.00007897       0.00000608       0.00043968      -0.01983318       0.00862115      -0.01605154      -9.16301083 F F F
 C             12.92844727      13.45681768      11.91350746      -0.00015840       0.00042547      -0.00049569       0.00891748      -0.01917754       0.00570326      -9.26011338 F F F
 C              5.65346286      13.03397648      11.99859421       0.00011018       0.00059170      -0.00061751      -0.01025761       0.01119110      -0.01508831      -9.30549511 F F F
 C             11.73430761       7.70496181       2.89025482      -0.00025184       0.00049791      -0.00035510      -0.01493032       0.02316182      -0.02949803      -8.94725290 F F F
 C             16.53743861      11.18585338      16.27890821       0.00009063       0.00013294      -0.00056730       0.00605044       0.02905357      -0.00144868      -9.07669157 F F F
 C              7.23906003       9.54486099      18.64602773      -0.00027567      -0.00014441      -0.00044495       0.02421199      -0.02940434      -0.01036675      -9.17514546 F F F
 C             19.65783190       4.29769210       9.82984442       0.00040985       0.00023518      -0.00001040      -0.00154000       0.00759934      -0.00265180      -9.17163011 F F F
 C             14.28211946      10.31929944      16.67089167      -0.00000913       0.00024574      -0.00048983       0.02466291       0.00049508       0.03125131      -9.36746142 F F F
 C              2.43103267      20.76075578      17.68072663       0.00011587      -0.00023116       0.00025864      -0.00874987       0.00318808       0.01335936      -9.29558142 F F F
 C             23.87211298       2.28396597      19.62136546      -0.00008773      -0.00030559       0.00008713       0.00107745      -0.00094280      -0.00135019      -9.16438907 F F F
 C             22.82977191       7.90185104       1.20589696       0.00022840      -0.00005116       0.00054234       0.01870191      -0.02690370       0.05079808      -9.15904216 F F F
 C             15.71925419       9.96345382       4.93215798      -0.00033967       0.00002057      -0.00008518      -0.01470935      -0.01140512      -0.01702234      -9.15738344 F F F
 C             18.66818969       8.02820619      12.89789859       0.00033571      -0.00018448       0.00003074      -0.06264136       0.01863929      -0.03675275      -9.06666825 F F F
 C              0.69232829      16.52017179       0.45861652       0.00002882       0.00004138      -0.00029355      -0.00449873       0.01566184       0.01746530      -9.01239419 F F F
 C             13.10337414      11.21456201       8.33125277      -0.00001619      -0.00011056      -0.00005981       0.00745131       0.02143725      -0.01701023      -9.03350399 F F F
 C             21.08898832      17.43100243      17.81618571      -0.00024908       0.00028833       0.00018453       0.01494609       0.01567380      -0.00991678      -9.17024648 F F F
 C             14.95177788       7.89659795      15.30480211       0.00027153      -0.00008134       0.00010114       0.00682710      -0.00780581       0.01463582      -9.22272390 F F F
 C             18.83347627       1.60227359       0.67554643      -0.00023776      -0.00006488      -0.00003590       0.02010421      -0.01394369       0.01347637      -9.19527472 F F F
 C             14.86747587      18.84003704      19.25817725      -0.00003202      -0.00009921      -0.00026263       0.00331590      -0.01186231       0.03060220      -9.32626098 F F F
 C             18.38150164      17.39181240      18.42623610      -0.00013223       0.00013140       0.00005266       0.01812177       0.00906339       0.00726543      -9.15460700 F F F
 C             19.52971772      15.12246777       4.94439698      -0.00016333      -0.00004071       0.00001851      -0.01173292      -0.00036800      -0.00354504      -9.24727765 F F F
 C             14.12694182      12.33708967      10.10138001      -0.00016643       0.00024038      -0.00022294       0.01189673      -0.00472024      -0.00322442      -9.00810841 F F F
 C              1.20877356      13.31261371      19.71570348      -0.00021873      -0.00005768      -0.00030687      -0.01054405       0.01076843       0.02360021      -9.04238176 F F F
 C             14.92368216       4.35010066      14.41907927       0.00026428      -0.00002648      -0.00006374      -0.03945914      -0.00089616      -0.04984485      -9.16133436 F F F
 C             16.42458684      11.63349138       6.39249894      -0.00049839       0.00018298      -0.00007982       0.00067363      -0.01614677      -0.01509035      -9.08929567 F F F
 C             22.27318895       3.49100682       6.55190099      -0.00041038       0.00041563      -0.00035418      -0.01089114       0.00691068      -0.01710130      -9.30083418 F F F
 C             10.99083963      18.88520965      19.46123625      -0.00014940       0.00018695      -0.00070176       0.01063075       0.01441362       0.00467699      -9.01553928 F F F
 C              9.34156711      19.61878959      16.24544046       0.00012763       0.00020706      -0.00045445       0.02259034       0.01068639       0.00483110      -9.13836411 F F F
 C             10.57023267      11.58546840       9.64400370       0.00009055      -0.00038437       0.00006475       0.01461184      -0.01746793       0.01236777      -9.24680357 F F F
 C             23.67049666      16.79787785      16.66101202      -0.00031471       0.00013662      -0.00000250       0.00309685       0.02411867      -0.01576393      -9.28333258 F F F
 C             12.35138842      14.26470230      18.44172323       0.00006012       0.00001658      -0.00011791      -0.03058518       0.00956816      -0.00504054      -8.93063863 F F F
 C             19.66925755      17.30677911       6.18839667       0.00028772      -0.00022081       0.00012752      -0.01540159      -0.00353433      -0.00938725      -9.16213326 F F F
 C              6.31198167       7.17259817      18.75439785      -0.00002488      -0.00008568       0.00018131       0.01001402      -0.01697174      -0.01109424      -8.95661328 F F F
 C              4.84110843      21.11753543      17.30560785       0.00022565      -0.00026946       0.00050049       0.00451401       0.00062380       0.01472909      -9.15570821 F F F
 C              2.05279725      11.36950902      10.45017135      -0.00000469      -0.00027719       0.00019428      -0.01657224       0.00294256      -0.00728139      -9.34910160 F F F
 C             24.25733108      15.52264751       0.53617917       0.00016578      -0.00010776      -0.00016781      -0.00607140       0.02194725       0.00738836      -9.17009203 F F F
 C             14.82639306      13.89083967      17.97077192       0.00016277       0.00007377      -0.00039546      -0.01311443       0.03326179      -0.02571421      -9.11643293 F F F
 C             17.98028530      16.10084272      17.99325025      -0.00000824      -0.00002136       0.00039370       0.03392359       0.00732506       0.03747613      -9.16962271 F F F
 C              4.79525058      18.93109222       0.32245114      -0.00002219       0.00019394       0.00024621       0.00132069       0.01025781       0.01067600      -9.12915286 F F F
 C             16.78512161       0.11558920      12.27656365      -0.00039210       0.00015511      -0.00052168      -0.01462009       0.01982105       0.00192257      -9.26908267 F F F
 C              4.50689206      20.25945323       0.76485929       0.00014057       0.00007948       0.00066697      -0.00944640       0.00383298       0.00269301      -9.18689410 F F F
 C             15.10254126      12.27309787       9.05061623      -0.00011914       0.00007803      -0.00002178      -0.00797022       0.03224841      -0.02379035      -9.01317769 F F F
 C              6.13323910      17.06293708      19.47082371      -0.00000849       0.00008156       0.00063566      -0.00226823       0.01826449       0.00984377      -9.09202319 F F F
 C             18.55906615      16.49441904       9.69364656       0.00131733      -0.00055551       0.00091399      -0.03604676       0.00962342      -0.00621774      -8.95037941 F F F
 C              4.93453990      14.17765440      19.22392157      -0.00004032       0.00003100       0.00018541      -0.00408604      -0.00331464       0.01200394      -9.11303070 F F F
 C              6.91688220      11.81437068      10.28185008       0.00010357      -0.00023061       0.00003955       0.00082836       0.01013934      -0.00723069      -9.31612616 F F F
 C             22.32003351      14.35188815       1.05065772       0.00024598      -0.00005001       0.00038915      -0.01658168       0.01703768      -0.00675563      -8.84102817 F F F
 C              0.40227852       3.30314531      19.58821471      -0.00006519      -0.00029473       0.00019548      -0.00202604      -0.00726828      -0.03447237      -9.16598440 F F F
 C             19.22821445      13.21361465      16.08415628       0.00033193      -0.00012633       0.00058730       0.02177353       0.00561912       0.03018388      -9.02333868 F F F
 C             13.01711383       3.78615586       1.05997940       0.00009567       0.00013564      -0.00055479       0.01511025      -0.02173607       0.02161966      -9.29043208 F F F
 C             17.14401169      13.42689832       8.07513447      -0.00008815      -0.00003029       0.00036382       0.00628829      -0.00436821       0.00731999      -9.14642056 F F F
