     512
 Properties=species:S:1:pos:R:3:velocities:R:3:forces:R:3:local_energy:R:1:fix_atoms:S:3 Lattice="21.1472824096       0.0000000000    0.0000000000    0.0000000000   19.4253869017    0.0000000000    0.0000000000    0.0000000000   19.7739382101" temperature=1.02441261 pressure=-6338.46370744 time_step=1.0000 time=1000.000000 energy=-4677.804916 energy_soap=-3792.31831292  energy_2b=-608.35779927 energy_3b=-144.22419018 energy_core_pot=-50.27778178 energy_vdw=0.00000000 energy_exp=0.00000000 energy_xps=0.00000000 virial="-5.06092653          -2.53685343    -10.96227686     -2.53685343     -1.35447234      2.92862470    -10.96227686      2.92862470    -90.12775541" stress="0.00062304            0.00031230      0.00134953      0.00031230      0.00016674     -0.00036053      0.00134953     -0.00036053      0.01109535" volume=8123.017995 step=1000
 C             18.77405370      15.97058401       2.61271593      -0.00003329      -0.00008166       0.00011030      -0.00397297      -0.01078681       0.00638159      -9.27209637 F F F
 C              7.37295199       6.03758693       3.29683903      -0.00004927      -0.00019905      -0.00047331      -0.00641178      -0.02691980      -0.00420652      -9.31928352 F F F
 C             14.92619111       1.35459263       8.66966110       0.00027348       0.00093472       0.00004530       0.01795751      -0.02289177      -0.01574451      -9.12614908 F F F
 C              4.63505903      13.60092506       3.09756186       0.00022243       0.00008231       0.00004853       0.02583016      -0.02298388       0.03858797      -8.94576279 F F F
 C             14.22028034       1.32988361       5.54621991       0.00014884      -0.00004934      -0.00025834       0.00577183       0.03774064      -0.00473022      -9.09736170 F F F
 C              6.44848231       1.32762757      10.33780518      -0.00025889       0.00008260      -0.00003264      -0.01933762      -0.00738304       0.00036660      -9.13870378 F F F
 C              3.31643223       0.91172439      10.15624637       0.00005105      -0.00041174      -0.00015009      -0.01965189      -0.01240880       0.00103490      -9.09034734 F F F
 C             14.12046998      17.39929011       9.91320613       0.00015195       0.00045102      -0.00015013      -0.00396124       0.01876571      -0.00742474      -9.30812106 F F F
 C             11.78344516       4.81893787       7.85977423       0.00012555      -0.00038891       0.00007750      -0.00191035      -0.02340905       0.01291908      -9.26803588 F F F
 C             20.67734986       9.97037737      17.58822971      -0.00063663       0.00031656       0.00019551      -0.03148530       0.01920398       0.01335698      -9.07244456 F F F
 C             13.91678287      18.18107622      18.64586343       0.00000378       0.00006266      -0.00013690      -0.01001448       0.01983542       0.00749880      -9.30368928 F F F
 C              5.49951611       9.50304616       0.30551529       0.00013674       0.00018311      -0.00004642       0.00119616       0.02326104       0.02339387      -9.01596050 F F F
 C              8.04473812      17.52157149       8.71272568       0.00016492      -0.00052513       0.00010844       0.01716202      -0.00000454       0.00894144      -9.28001254 F F F
 C              9.53092387       4.52197925       6.07192497       0.00004907       0.00018944      -0.00000361       0.00722964      -0.02914271       0.00305107      -8.99211590 F F F
 C             20.01098388      10.21664071      11.70141226       0.00052440      -0.00024190       0.00010556       0.00055616      -0.01780405       0.01886640      -9.06837306 F F F
 C             17.99771591      17.47977226      17.74417116      -0.00032946      -0.00049875       0.00004805      -0.01262682      -0.02081801       0.00061867      -9.15186365 F F F
 C             19.56873385       0.59470384       4.12963499      -0.00001273      -0.00045112       0.00007581       0.00082195      -0.02604203      -0.01127966      -9.27793874 F F F
 C             17.27517603       1.07599363       3.44681150       0.00011831      -0.00002621      -0.00017430       0.00222275       0.03254179      -0.00124873      -9.29650671 F F F
 C             18.60272235       1.21913158      18.99116432      -0.00009075      -0.00023217       0.00000583      -0.01407722      -0.02492095       0.00494348      -9.05425495 F F F
 C              7.33679891      16.73208377      15.09490701       0.00005241      -0.00008045       0.00003837       0.01902822      -0.03057226       0.00628953      -9.08077690 F F F
 C              5.74146757       1.15308072       1.54610995       0.00003962      -0.00016633       0.00003860       0.00907808       0.01003178      -0.00922477      -9.21505199 F F F
 C             18.64706867       1.47849836      16.37384333      -0.00004919      -0.00023107       0.00017123      -0.01159452       0.01277385       0.01555482      -9.13445896 F F F
 C              3.26383855       1.02044387      11.56316351       0.00010415      -0.00058690      -0.00011409      -0.02450265       0.04702478       0.00125204      -8.95352321 F F F
 C              5.05999583      13.11102679      15.68713758      -0.00002197       0.00009216       0.00006821       0.00522103      -0.00006246       0.00064493      -8.88981905 F F F
 C             18.18310740       1.50092025      14.04566870       0.00043006       0.00106548       0.00012104       0.00783976       0.05063106       0.01628136      -9.04310215 F F F
 C             11.64310830      17.46357010       5.44297089      -0.00011704      -0.00060198      -0.00002025      -0.01095265      -0.03884502      -0.01576604      -9.31963882 F F F
 C              7.62355183       1.29721499       5.33419640       0.00005292      -0.00039571       0.00007757      -0.01292935       0.01987606       0.00904341      -9.14202910 F F F
 C             14.37681238       1.90796353       0.37641040      -0.00010410       0.00058051      -0.00012454       0.00541018       0.01605506      -0.00139086      -9.21075965 F F F
 C              7.54116417       5.45960640       4.61916601      -0.00002515      -0.00010435      -0.00036870      -0.00685708      -0.05746795      -0.01387667      -9.16305889 F F F
 C              5.43598115       8.78059729       1.58381295       0.00028510       0.00021089      -0.00002593       0.00487763       0.01497980       0.01344264      -9.18879140 F F F
 C             18.75773747       7.86732703      17.15365281       0.00043062      -0.00069384       0.00027992       0.04225044      -0.03578871      -0.01068895      -9.09409262 F F F
 C              0.11999475       0.61036828       7.45289120       0.00004819      -0.00013607      -0.00002655       0.00639147      -0.03045358      -0.00884061      -9.32617737 F F F
 C             16.98861486      17.13434537      13.06777575       0.00016896      -0.00027809      -0.00016364      -0.00116373       0.01193597      -0.00806385      -9.19127443 F F F
 C             13.17163063       5.08226630       1.53078346      -0.00015275      -0.00012999      -0.00003211       0.00543578      -0.01776410       0.00042973      -9.23790485 F F F
 C              7.09334211       6.71942590      11.53604526      -0.00044875      -0.00015533       0.00007237      -0.01393648      -0.02273238       0.01286407      -9.08930115 F F F
 C             13.56710224      17.34193685       7.54528395       0.00000882      -0.00013268      -0.00002637       0.00364448      -0.00666989      -0.01263357      -9.30129772 F F F
 C             10.72331847       5.17245616       1.74895342      -0.00012292      -0.00076525      -0.00043010      -0.00054999      -0.00926548       0.01386753      -9.25441419 F F F
 C              6.07400956       9.23946654      17.41015670      -0.00047826      -0.00005476      -0.00023680      -0.01524517       0.00408731      -0.00043572      -9.10209910 F F F
 C              4.97180696      14.53259390      12.91385243      -0.00023409       0.00032592       0.00017094      -0.02695705       0.01575753      -0.02386859      -9.08776560 F F F
 C              3.68606969      14.36952795       5.75861802       0.00038608      -0.00007194       0.00010455      -0.00197348       0.00962854       0.00693807      -9.15271138 F F F
 C              9.95183365      17.68277325      10.79137368      -0.00002920       0.00039354      -0.00001793       0.00757353       0.02891719       0.00784823      -9.28460406 F F F
 C             11.95918442       2.22174589      19.62125592      -0.00019512      -0.00013989       0.00007853      -0.00211407      -0.02525207       0.00496440      -9.18023067 F F F
 C             11.62758826       5.97378928      13.01911860      -0.00001864       0.00035698      -0.00000165       0.01755159       0.02246594      -0.00402622      -9.01731858 F F F
 C             10.08878273       6.68314207      16.28737363      -0.00020086      -0.00026332      -0.00001957       0.02486337       0.00922966      -0.00076958      -9.19833429 F F F
 C             14.52454495      17.19750381       8.58344382       0.00011417       0.00018613      -0.00006603       0.00828872       0.02551549      -0.00769441      -9.29933076 F F F
 C             12.30884500      17.76982018      11.52365681      -0.00001258       0.00051030      -0.00021222      -0.00448116       0.00316733       0.00289833      -9.30501798 F F F
 C              6.03643270      16.33384722      11.61282898       0.00015823      -0.00022249       0.00004326       0.00477613       0.00557035      -0.00200355      -9.18278414 F F F
 C             20.73230935      10.54234774      15.25504317      -0.00097949       0.00046739       0.00027251      -0.02120782      -0.00274001       0.01571942      -9.01293077 F F F
 C             19.76712949       8.88064763       2.42432669       0.00009763      -0.00005143       0.00015167       0.00708967      -0.00233616      -0.01586792      -9.14213566 F F F
 C              0.08403453       1.09429840      13.62253016       0.00032357       0.00065502       0.00007005      -0.00097430      -0.04202702       0.02917617      -9.17140786 F F F
 C              3.78851978       1.05850349      17.37891786       0.00000267      -0.00030171       0.00004102       0.00976505       0.00731579      -0.00490342      -9.31224089 F F F
 C             17.86188337       0.88639880       5.86189387       0.00006681       0.00008723       0.00001082       0.01671637       0.04625745      -0.00251770      -9.31583323 F F F
 C             14.17956109       6.02386919      17.73616244       0.00001828       0.00046251       0.00025274       0.01123446       0.01605956       0.00576276      -9.12978994 F F F
 C              5.90341363       1.52131330      16.28412271      -0.00007243       0.00003791       0.00012314       0.01623024      -0.02638984       0.00204958      -9.30870704 F F F
 C              1.13114209       0.16587271       3.33780179       0.00025723       0.00035708       0.00019320       0.01324217       0.04058178      -0.03090941      -9.07241799 F F F
 C             10.87417526       4.28797393       5.69361164       0.00003687      -0.00010187       0.00004605       0.01217459       0.00201943       0.01481179      -8.88200346 F F F
 C             18.43429820      16.79776551       0.27954959       0.00017883       0.00026412       0.00021802       0.00451382       0.00288357       0.01003980      -9.25680107 F F F
 C              6.53685638       8.52450946      15.00327932      -0.00037598      -0.00003239      -0.00011130      -0.01776736      -0.02666161      -0.00014979      -9.20359671 F F F
 C              6.63994136      16.74604927      18.87922346       0.00008184      -0.00011249       0.00001002       0.03060584       0.00851611       0.00042943      -8.90275706 F F F
 C             16.66368298      17.84669253      18.05862053      -0.00028034      -0.00052533      -0.00002111      -0.01622901      -0.02081559       0.00378312      -9.26794725 F F F
 C             10.92260694       4.26013596       4.30700001      -0.00003897      -0.00010312       0.00001580       0.02043993       0.01825298       0.01817716      -8.74454716 F F F
 C             16.35451912       1.36554114      10.75213360       0.00040707       0.00033672       0.00012982       0.02750509      -0.00554248      -0.00487152      -9.04755481 F F F
 C             18.97037753       0.77358412       1.68648098       0.00002110      -0.00039247       0.00000241      -0.00492166      -0.03207061      -0.00619865      -9.32783292 F F F
 C             20.70567396      10.90464462      12.82049096      -0.00024053       0.00017842       0.00029996      -0.00796720      -0.01714223       0.03237490      -8.80629982 F F F
 C             17.13900785      17.28461804       0.62817655       0.00008010       0.00012512       0.00012001      -0.00384365      -0.01331765       0.00227537      -9.28077721 F F F
 C             15.01705490       2.20647282      16.50804132      -0.00026729       0.00005952      -0.00010946      -0.01352154       0.03324656      -0.00441420      -9.10939293 F F F
 C              6.92726741      16.62001053      12.68367404       0.00022217      -0.00042322      -0.00000035       0.01364942      -0.02396071       0.00116224      -9.18669840 F F F
 C             19.47969347      10.18757685       9.19960945       0.00077569      -0.00038716      -0.00001918       0.00229517      -0.00131243       0.00883167      -8.93317435 F F F
 C              4.91889112      16.39889919       7.09802902       0.00003711       0.00018435      -0.00002850       0.02477146      -0.00788418       0.01304137      -8.92725295 F F F
 C             15.94281239       1.28216819       3.80935858       0.00017526       0.00037058      -0.00026044       0.00535260       0.02866174      -0.00183624      -9.34588902 F F F
 C             19.22212706       1.13497055      11.79862619       0.00047790       0.00033835       0.00008536       0.01947083       0.01776362       0.01455467      -8.89216811 F F F
 C             13.59596498       1.41899648       8.14925009       0.00022269       0.00081271      -0.00007548       0.01145503       0.00627532      -0.00635421      -9.18938832 F F F
 C              5.01469911      11.92016540      14.84730568      -0.00048859       0.00017772       0.00007876      -0.01635306       0.00312592      -0.01392995      -9.10267440 F F F
 C             19.70573857       8.56847819       1.02005293       0.00027210      -0.00011802       0.00023699       0.03394553      -0.02631770      -0.00851617      -8.96389878 F F F
 C              1.46984875       0.57425965       7.02700707      -0.00000526       0.00073379      -0.00019899       0.00674505       0.00088976      -0.01064067      -9.15044450 F F F
 C              1.64961233       0.97782718      16.06851385       0.00009752       0.00016584       0.00009801       0.00162647      -0.01290652       0.00931920      -9.29278533 F F F
 C              9.31805756       4.73619368       7.41892604      -0.00007935      -0.00008900       0.00004400       0.00131117      -0.02348287       0.00149134      -9.06974250 F F F
 C             16.62458793       1.50553838      12.12469939       0.00046384       0.00049839       0.00011104       0.01648990       0.01307184      -0.00245545      -9.23364587 F F F
 C             10.46391947      17.80533945      13.16322317      -0.00019638       0.00072868      -0.00012036       0.00184455      -0.00749762       0.01210123      -9.30296446 F F F
 C              0.05079895      13.97171639      18.64220742       0.00009876      -0.00007966      -0.00005445      -0.01592873      -0.00527256       0.00038236      -9.12783095 F F F
 C             12.40658607       1.54719610       9.03656024       0.00003249       0.00033999      -0.00006667       0.00064412      -0.00037920       0.00375649      -9.36846959 F F F
 C              9.73956186       1.39086983       6.17785456      -0.00000571      -0.00004153       0.00009380       0.00502961       0.00862527       0.01547056      -9.25504388 F F F
 C             19.85547697      14.53486849      10.19578511       0.00063170       0.00003251      -0.00020505      -0.00844368      -0.02412119       0.00122347      -8.64813179 F F F
 C             16.21648431       1.88973721      18.47033616      -0.00020753       0.00046617      -0.00007439      -0.01136987       0.00503407       0.00003287      -9.19218350 F F F
 C             12.53464720      18.24945822      18.92994287       0.00003124       0.00013656      -0.00008320      -0.00965256      -0.01795132      -0.00078676      -9.30916119 F F F
 C             18.34383591       8.21921174      11.92636190       0.00061707      -0.00055178      -0.00004974      -0.05948308       0.03840401       0.00534608      -9.02996609 F F F
 C             15.72201086       1.93960374      14.27649342      -0.00003924      -0.00044970       0.00006464      -0.00704955      -0.02968671       0.00104580      -9.13440964 F F F
 C              0.24196872      12.26848536       2.30975643       0.00073083      -0.00000516       0.00034041      -0.02456122       0.01027872      -0.00343563      -8.76781745 F F F
 C             17.67431446       6.66088273       5.58324550      -0.00024731      -0.00009018      -0.00029675      -0.00722389       0.01944933      -0.02551474      -9.02196880 F F F
 C              5.45097303      10.41832757      16.85145575      -0.00083324      -0.00021097      -0.00023281      -0.00378766       0.00950344      -0.00046876      -9.04846764 F F F
 C              4.77128256      11.52052203       1.65120348       0.00073831       0.00011420       0.00018699      -0.03696089       0.00724671       0.01635699      -9.23129987 F F F
 C             15.28484594       5.87546379       8.69794299       0.00038670      -0.00011914      -0.00022362      -0.01275311       0.01039471      -0.00673358      -9.25590155 F F F
 C             17.59302300       7.12311058      16.86890167       0.00032691      -0.00065595       0.00032714       0.01906877       0.00385167      -0.01426217      -9.13063782 F F F
 C             13.48264113       6.11522204      14.62762037       0.00007237       0.00011043      -0.00009238       0.00625288      -0.07556001       0.03497226      -9.09260942 F F F
 C             19.69637054       9.01340628      13.71156614      -0.00071226       0.00038848       0.00033515       0.02589487      -0.05350154      -0.00588969      -8.99582364 F F F
 C             16.42169457      16.84774433      10.69693454       0.00017475      -0.00014164      -0.00016126      -0.01767948      -0.02391632      -0.00323290      -9.33335068 F F F
 C              8.72529220       4.72616980       4.88333347       0.00018073       0.00036844      -0.00012828       0.00168175      -0.04766395      -0.00110337      -8.98162070 F F F
 C              7.87162187       1.99112645      17.61826994      -0.00017662       0.00028349       0.00019251       0.00315303       0.01545551       0.01539655      -9.31767013 F F F
 C              5.44408306      14.97967087      17.86689462       0.00008719      -0.00006193      -0.00000040      -0.01559659       0.03012428       0.00740938      -9.10422679 F F F
 C              1.70352607       0.61359940      18.52870865      -0.00001853      -0.00029576       0.00006360      -0.00064031       0.03418056      -0.00261713      -9.31654073 F F F
 C             11.14516774       6.39856291      15.38491417      -0.00011090      -0.00010418       0.00001638       0.01431392      -0.00743416      -0.00153837      -9.18621032 F F F
 C             20.26456979      14.32845650      11.58739178       0.00052837       0.00014801      -0.00020742      -0.00908812      -0.01492420       0.00243861      -8.64365424 F F F
 C             19.41339021      13.99219546       5.92863336       0.00008203      -0.00004009       0.00010890       0.00923262       0.00814134       0.00907188      -9.03588935 F F F
 C              2.35948374       9.70052928       6.79753873      -0.00007873       0.00014014      -0.00003699       0.00349835      -0.00391136      -0.00450574      -8.82259906 F F F
 C              7.82098165       1.77546659       0.41475189      -0.00010954      -0.00015844       0.00017056       0.00776644      -0.00687841       0.01572486      -9.25915059 F F F
 C             17.73024034       6.24110618       4.21665510      -0.00048763       0.00013140      -0.00021051       0.00677138       0.00295618      -0.02645154      -8.97741021 F F F
 C              9.61430923      17.93622428      15.80690837      -0.00008105      -0.00008091       0.00004088      -0.00651590       0.04506722      -0.00266506      -9.15647948 F F F
 C              9.84225244      17.53130738       7.06747838       0.00007212      -0.00046754       0.00008414      -0.00237399       0.00960499      -0.00650689      -9.32370901 F F F
 C              8.36141054      18.16218904      19.25699830       0.00000267       0.00002958       0.00004475       0.00142040       0.02820810      -0.01010158      -8.64043382 F F F
 C             14.85133065      17.93812328      19.68665857      -0.00007555      -0.00028016      -0.00005903      -0.00704290       0.01099194       0.00353751      -9.29093467 F F F
 C             15.59981546       5.13117563       4.41875903      -0.00016665      -0.00005042      -0.00012083       0.02027583      -0.00168221      -0.02325751      -9.13789648 F F F
 C              7.84768606       1.49712730      10.25245527      -0.00028099       0.00033273       0.00002857      -0.02281653       0.00240553       0.00183202      -9.24531548 F F F
 C              2.08434859       0.75352678       9.44408532       0.00007423       0.00003990      -0.00019010      -0.01494578      -0.01425175      -0.00220218      -9.11640770 F F F
 C             17.21124287       1.54472629      19.38570243      -0.00005450       0.00021911      -0.00014176      -0.01717478      -0.03256752      -0.00073523      -9.16809429 F F F
 C              8.43355434       1.37558823       4.17514411       0.00000817      -0.00027975       0.00010974       0.00623188      -0.00435505       0.01066061      -9.07133967 F F F
 C              6.61127711      16.14822055      13.98052658       0.00009685      -0.00010355       0.00006107       0.01026446      -0.02220477      -0.00067240      -9.18826165 F F F
 C             15.33768929      16.94919191       5.93075892      -0.00016581      -0.00033412       0.00002421       0.00021369       0.01365351      -0.01571613      -9.28671881 F F F
 C             10.67436379      17.42339723       4.39602481      -0.00013876      -0.00007426      -0.00003107      -0.01500110      -0.03535518      -0.00841458      -9.27594491 F F F
 C             20.25810955       9.11853679      18.60514795       0.00011935      -0.00006858       0.00021934      -0.00973999       0.00987770       0.00379565      -9.01615504 F F F
 C             19.48524422       9.71947172       6.69921499      -0.00039527      -0.00006514      -0.00017665       0.01979127      -0.00922187      -0.00041918      -9.04069618 F F F
 C             19.73060496      15.25220551      13.86974765       0.00050026       0.00032161      -0.00016275       0.02563853       0.01094569      -0.00707119      -8.85012115 F F F
 C             12.03902883       1.38003194       4.84558673       0.00012459       0.00017769      -0.00006684      -0.00440199       0.00588342       0.00610756      -9.09881401 F F F
 C              9.08791356      17.52421708      13.48353336      -0.00014835       0.00035538       0.00001359       0.00944184      -0.02942878       0.00946019      -9.27092518 F F F
 C              0.65729750       0.94748164      11.36938497       0.00028068      -0.00013724       0.00000051      -0.00343772      -0.00885938       0.01632659      -9.17049255 F F F
 C             19.35848020       9.08041398      12.33675762       0.00032555      -0.00029899       0.00009111      -0.00836210      -0.01387236       0.00372567      -8.95774190 F F F
 C             19.24254303       1.34718377      15.02831709       0.00028313       0.00082839       0.00022297       0.00364742       0.04074449       0.02516929      -9.19043607 F F F
 C              6.71313876      16.47063036      16.38506845       0.00017529      -0.00011400       0.00008604       0.02436334      -0.02553059       0.00383935      -9.11302387 F F F
 C             11.98700149       4.52235434       6.48568226       0.00009507      -0.00021196       0.00001612       0.01103377       0.00878417       0.01089307      -9.18988146 F F F
 C             10.75929742       6.31154143      14.07652301      -0.00014447      -0.00008004       0.00004634       0.01915977       0.03069539      -0.00364343      -9.10138609 F F F
 C             11.06894880       1.52684519       8.46567273      -0.00006379      -0.00000213      -0.00003902      -0.01017984      -0.02243691       0.01022364      -9.17894277 F F F
 C              3.81778188       1.18584716      14.84713336      -0.00001622       0.00020144       0.00007294       0.00449501      -0.01221700       0.00357192      -9.17863246 F F F
 C              4.37692020      15.80626204       9.31597981      -0.00007100       0.00031952      -0.00001541      -0.01484573       0.04731848       0.00669299      -8.95972588 F F F
 C             20.64446398      14.58308717      16.22365701       0.00039398       0.00031796      -0.00008691      -0.01162632      -0.01103459      -0.00130199      -9.16576526 F F F
 C              6.38149422       1.19370344       2.82502902       0.00001686      -0.00010337       0.00002862       0.01182311       0.01693181      -0.00670975      -9.36255802 F F F
 C              3.53306878       8.63529567       4.99033246       0.00041566       0.00047356       0.00007132      -0.01628935      -0.01441087      -0.00676994      -8.98007629 F F F
 C             19.42390507       0.80020323       0.30038249      -0.00008269      -0.00042780       0.00000857      -0.01054471      -0.02542581      -0.00118874      -9.29649553 F F F
 C             11.39626513       1.77684384      11.40997498      -0.00007304      -0.00064400       0.00001372      -0.00983307       0.01842199      -0.00159097      -9.12969761 F F F
 C             17.51130521       7.44998365      12.88743904       0.00016647      -0.00027073       0.00002512      -0.05218429       0.04043666       0.01844001      -9.17005291 F F F
 C              4.46676406       1.08079124      18.68061904      -0.00003475       0.00000318       0.00003127       0.01326006      -0.01733680      -0.01125336      -9.26394015 F F F
 C              4.25392374       0.81365860       6.57041047       0.00000332       0.00023209      -0.00017782      -0.01324636       0.00770980      -0.01353642      -9.18044152 F F F
 C              8.42426636       6.12310140      11.32367234      -0.00039024      -0.00070151       0.00028871       0.00496661       0.00569124       0.00439837      -9.02967805 F F F
 C             16.26198794       6.65867452      10.84811692      -0.00006464       0.00050745      -0.00019020      -0.00324289      -0.01552602       0.00631106      -9.21854296 F F F
 C              8.16627212      17.26288450      12.43367745       0.00005412      -0.00011794       0.00002786       0.01486056      -0.02601535       0.00643794      -9.24411316 F F F
 C             15.56590078       5.40339444       1.48630702      -0.00029779       0.00029794       0.00007618       0.01837715      -0.02554470      -0.03254862      -9.17359010 F F F
 C              8.69022987      17.09293900       2.30928665       0.00001204      -0.00044636      -0.00010269      -0.00512052       0.02189007       0.00240595      -9.02357530 F F F
 C              4.37731266       0.80441718       1.45352963       0.00007879      -0.00007845       0.00000896       0.00385558       0.02664792      -0.02393532      -9.32931508 F F F
 C             17.07781993       7.00377591      15.49326201       0.00006492      -0.00038543       0.00030865      -0.00717358       0.02474632      -0.00453276      -9.06928402 F F F
 C             19.52145758      15.20836196      12.45299657       0.00037859       0.00018138      -0.00019278       0.00992237       0.00783693      -0.00930913      -9.06161644 F F F
 C              0.28352573       0.64470933      18.57646837      -0.00006883      -0.00046993       0.00006691      -0.00356461       0.01679040       0.00451207      -9.22819137 F F F
 C              3.61813619       0.56076263       2.69126968       0.00023596      -0.00007754       0.00002193       0.00420671       0.04471262      -0.03811085      -9.11963481 F F F
 C              1.56313851       1.05400972      13.56440909       0.00025979       0.00048115      -0.00001076       0.00005948       0.01330329       0.01779097      -9.11955921 F F F
 C              3.05732752      11.73676821      11.20385602      -0.00008990       0.00029073       0.00006038      -0.02534302      -0.00544457      -0.02902863      -8.74975997 F F F
 C              6.16721796       6.55016523      10.42345776      -0.00023577       0.00006644      -0.00004593      -0.01045871      -0.01594763       0.00945094      -9.16420162 F F F
 C              5.03831427      11.49300886      17.64088054      -0.00046579      -0.00013104      -0.00013438       0.02469720       0.02656535       0.01332547      -9.05216448 F F F
 C              5.14049305      14.83135881       3.68577644       0.00013190       0.00008415       0.00002835       0.04175012      -0.03751332       0.02657570      -9.14821052 F F F
 C             13.28626398      17.83115806      12.54439415       0.00001444       0.00036850      -0.00028940      -0.00891632      -0.02038520       0.00982090      -9.30908149 F F F
 C              4.16777137       0.73430813       4.03836058       0.00013216       0.00024783      -0.00005241      -0.00168490       0.03969345      -0.02858185      -9.07605621 F F F
 C              0.79253928       0.79979609       9.94129111       0.00014528      -0.00023643      -0.00003299      -0.00442508      -0.03628700       0.00685861      -8.96880122 F F F
 C              0.38293099      13.25760090       1.25011286       0.00057802      -0.00005411       0.00009964      -0.00170552       0.01358387       0.00848329      -8.82431956 F F F
 C              3.79243183       0.76847122       0.11448759      -0.00003129       0.00028490       0.00005261       0.00317561       0.01511708      -0.01779393      -9.21310324 F F F
 C              8.81606746       5.49306992      10.08339798      -0.00035558      -0.00067660       0.00023094      -0.00318737      -0.02022901       0.01125375      -9.25509044 F F F
 C              9.42354118      17.61187866       8.41039900       0.00011413      -0.00044687       0.00008420       0.00617940       0.03907376      -0.00253824      -9.30679231 F F F
 C             15.85288470      16.77911380       8.30690332      -0.00000243      -0.00028450       0.00000430       0.01216749       0.03418843      -0.00906206      -9.28311686 F F F
 C             16.75728184       1.45053527       1.00198822       0.00006008       0.00017850      -0.00019463      -0.01033480      -0.03696016      -0.00419117      -9.30826505 F F F
 C             10.63427621       5.70562364       0.46696280      -0.00002247      -0.00030900      -0.00026828      -0.00751044      -0.00827653       0.01703027      -9.26598306 F F F
 C             19.40382175       8.55197499      16.05194389      -0.00027072      -0.00002570       0.00026616       0.01730549      -0.01682847      -0.00424394      -9.29693744 F F F
 C              8.45174790       7.09130757      14.45108810      -0.00045362      -0.00055314       0.00005358      -0.00550274      -0.03506746       0.00076714      -9.12567569 F F F
 C              0.89032409       0.38731857       4.69052874       0.00012436       0.00069028       0.00004052       0.00434069      -0.01689611      -0.02627344      -9.13795239 F F F
 C              6.32185887       6.96770115       3.04076768       0.00005732      -0.00006729      -0.00035985      -0.00329033      -0.01439906      -0.00293518      -9.26142465 F F F
 C             16.24535520      16.58806189       6.96823884      -0.00023723      -0.00052759       0.00000976       0.00480704       0.02057273      -0.01082692      -9.27619944 F F F
 C              5.72869227       1.17071238       9.11237973      -0.00014045      -0.00002058      -0.00010496      -0.01349764      -0.07286661      -0.00274607      -9.12566379 F F F
 C              4.38838404       7.40131746       8.91142236       0.00026828       0.00053076      -0.00012974      -0.03903844      -0.02196676       0.01879937      -9.22884854 F F F
 C             10.43995649       4.89046278       8.33305191       0.00000628      -0.00060927       0.00018357      -0.00552212      -0.04030452       0.01087650      -9.34298757 F F F
 C             20.58079364      15.15992440      19.12683154      -0.00056133      -0.00051983       0.00000135      -0.03007603      -0.01957319      -0.00088209      -9.10465238 F F F
 C              5.00248812      11.69714042      19.05136791       0.00029822      -0.00006534      -0.00008031      -0.00768038       0.02871333       0.01606710      -9.08490991 F F F
 C             18.40049757      17.51456879      16.40404792      -0.00041326      -0.00045414       0.00008040      -0.01078231      -0.02121510      -0.00030908      -8.79687777 F F F
 C              4.93389692      12.95191846       1.84051707       0.00024188       0.00012314       0.00001601      -0.01107123       0.00395119       0.02138812      -9.02562642 F F F
 C             15.31452920      17.43562886       2.24989023       0.00000555       0.00011086       0.00005270      -0.00668187      -0.00541274      -0.00968708      -9.29017188 F F F
 C              2.81098560      13.32724433       7.90824122       0.00039763      -0.00007520      -0.00009781       0.02481292       0.00055048      -0.01836563      -9.08945277 F F F
 C             14.44461702       4.84483983       3.65895032      -0.00015340      -0.00011039      -0.00007338       0.01532531       0.02002504      -0.01377362      -9.21300938 F F F
 C              4.85698257      12.78465504      17.01595704      -0.00016518      -0.00001479      -0.00001825       0.04535456       0.02105144       0.01163438      -8.97855609 F F F
 C              4.65413302       9.27662457       2.71664524       0.00057507       0.00018883       0.00012323      -0.01950699      -0.00412535       0.01707635      -9.08389948 F F F
 C             20.39191876      10.11706277       2.89787500       0.00020031       0.00001672       0.00023189      -0.02276067       0.01040373      -0.02129017      -9.29730447 F F F
 C              4.86823931       6.60920529       7.81335028       0.00046832       0.00068191      -0.00020590      -0.00591804       0.01828279      -0.00190550      -9.08399694 F F F
 C             15.72187852      18.09457811      17.01331023      -0.00016704      -0.00020956      -0.00012282      -0.01103974       0.02186513       0.00702906      -9.28977774 F F F
 C             20.50866537       9.40739545       0.17947346       0.00006406       0.00008468       0.00020560       0.01752932      -0.00528040       0.00081558      -8.95318892 F F F
 C              3.41634182       8.39155101       8.62217864      -0.00015841       0.00014667       0.00012363      -0.02309662      -0.01321036       0.00787784      -9.13792076 F F F
 C             16.64124328       6.58935495      17.82110989       0.00021671      -0.00033664       0.00030771       0.00644987       0.03096680      -0.01223133      -9.13775537 F F F
 C             13.33852410       1.39779242       4.40518217       0.00008529      -0.00027979      -0.00019989       0.01203861       0.01402873      -0.00768540      -9.08198760 F F F
 C              0.40099016       0.01052674       1.12433712       0.00015663       0.00036523       0.00026525       0.00285093      -0.03466794      -0.01829843      -8.82085250 F F F
 C             13.93345239       5.78667270      10.86571370       0.00006796       0.00040582      -0.00031273      -0.01686875       0.01468859       0.01200606      -9.10657804 F F F
 C             17.76271068       6.46424900       1.81917885      -0.00042198       0.00028445       0.00008457      -0.01389098       0.02201493      -0.02271871      -9.01633730 F F F
 C              7.04261681      16.43413570       4.03450702      -0.00005567       0.00021531      -0.00010046      -0.01388831       0.02236025      -0.00195177      -9.24403759 F F F
 C             17.82002371       7.51577181      14.34525532      -0.00014304      -0.00021081       0.00022739      -0.02152887       0.02269722       0.00713698      -9.04872860 F F F
 C              2.58604405      11.81360205       9.85473934       0.00026069       0.00008927      -0.00002956      -0.03875348      -0.00069573      -0.02468949      -8.89174846 F F F
 C              7.79277168       5.20289950       9.19610060      -0.00036132      -0.00018213      -0.00001769       0.00757228      -0.00663642      -0.00066531      -8.88687222 F F F
 C             16.49603941       1.09664229       6.31440897       0.00017284       0.00063915      -0.00000769       0.00759313      -0.00019713      -0.00093357      -9.11375157 F F F
 C              9.75638113       1.39906335       4.66569742      -0.00003063      -0.00003095       0.00008803       0.02152165      -0.00363016       0.01333338      -9.23497737 F F F
 C              4.61856813       6.94301684       6.43754543       0.00036430       0.00045810      -0.00009379       0.00379312      -0.00441963      -0.01227874      -9.10639870 F F F
 C             11.66787228       6.11275310      18.04792993       0.00008916       0.00012919      -0.00006872       0.01274706       0.02328422       0.02501212      -9.27906738 F F F
 C              5.22439765      13.75375178       0.71089857       0.00009434      -0.00000743      -0.00008299       0.00493088       0.01766646       0.02658858      -8.96325074 F F F
 C             15.40864313       6.29341282      17.03734723       0.00006259      -0.00000356       0.00031575       0.00815478       0.04099941       0.00610028      -9.11913671 F F F
 C              7.79749989       1.37133872       7.80083237      -0.00019628       0.00016315       0.00002561      -0.01287171      -0.01126199       0.00242416      -9.19806702 F F F
 C             19.59238888       0.81757557       9.20129334       0.00014056      -0.00113392       0.00012379       0.02172950       0.01607644       0.00081292      -9.10297793 F F F
 C              5.53020590       8.48596700      12.36340791      -0.00033526       0.00021754       0.00004918      -0.01331804      -0.01672143       0.00845178      -9.27865231 F F F
 C             12.98097838       1.94773312       0.75995008      -0.00009629       0.00019899       0.00000115       0.00766825      -0.00103702      -0.00355582      -9.15088381 F F F
 C              8.00792274       4.95893049       7.80610491      -0.00014414       0.00003142      -0.00006568       0.01313589       0.01738319      -0.01512267      -9.01993333 F F F
 C             13.81708992      18.12112892      14.88801068      -0.00010006       0.00046247      -0.00036148      -0.01215231      -0.03238434       0.01299303      -9.28792216 F F F
 C             20.28792051       0.60843678       6.43435882       0.00001217      -0.00028354       0.00004341       0.00967038      -0.02113866      -0.01688375      -9.20962399 F F F
 C             17.46690973       1.12712331       9.99270878       0.00031014      -0.00020854       0.00020764       0.01588436      -0.03078860       0.00427335      -9.11612035 F F F
 C              8.63600331      17.43225812      14.83616024      -0.00011068       0.00008017       0.00003183       0.00707452      -0.01043518       0.01026180      -9.08130108 F F F
 C              2.35549686       1.07202138      14.80114082       0.00009667       0.00049005       0.00005112      -0.00032929      -0.00132682       0.01046478      -9.14475889 F F F
 C              4.67000086       1.25736210      13.69248347      -0.00007757      -0.00005484       0.00003999      -0.00682869      -0.00390154       0.00492478      -9.06854356 F F F
 C              5.79475416      15.07438390       0.65932852      -0.00023422       0.00009492      -0.00005224       0.03894444       0.01059555       0.00726169      -9.12402995 F F F
 C              8.67116316       2.08109231      16.40436605      -0.00019351       0.00033340       0.00022326      -0.00487227       0.01082884       0.00953128      -9.23365419 F F F
 C              9.43746201       6.54451267      13.59067711      -0.00030312      -0.00059732       0.00014630       0.01926123       0.03229542      -0.01484601      -9.09499627 F F F
 C              9.77511624       2.34331469      18.96195218      -0.00024005      -0.00049504       0.00022537       0.00136464       0.01802034       0.03661187      -8.93715397 F F F
 C              9.29295239      18.21923237      17.12648960       0.00003356      -0.00017404       0.00008367      -0.00044131       0.03547304      -0.00444180      -9.05474507 F F F
 C              2.73461990      11.03658335       4.82447411      -0.00059082       0.00023641      -0.00031382      -0.02390076      -0.00073022       0.00354423      -8.88251519 F F F
 C             19.26524653       1.23653183      17.60656120      -0.00006376      -0.00033163       0.00014766      -0.01400302      -0.00157551       0.00948645      -9.07369698 F F F
 C              8.58708069       1.67685172       1.67199217      -0.00005921      -0.00025795       0.00018740       0.00970337      -0.01218855       0.01830007      -9.20263362 F F F
 C             16.18642137       1.15768785       7.81687214       0.00027850       0.00070552       0.00007614       0.01424801      -0.04362463      -0.00124898      -8.90539494 F F F
 C             11.30036551       5.50726093      10.55641975      -0.00002146      -0.00017431       0.00005355      -0.00231961      -0.00412081      -0.00852563      -9.07156526 F F F
 C             14.79640706       2.06961228      18.81836770      -0.00025570       0.00060946      -0.00010579      -0.00570501       0.03667304      -0.00130368      -9.23143690 F F F
 C             20.77629975       0.44698475       0.04716975      -0.00005155      -0.00043615       0.00010742      -0.00487135      -0.01856449      -0.00851288      -9.23636021 F F F
 C             15.15989935       6.05682689      10.14142876       0.00016718       0.00013465      -0.00024782      -0.01237521       0.00725479       0.00428302      -9.23485311 F F F
 C             19.07981222      16.32498192      14.51129899       0.00035736       0.00014021      -0.00005061       0.03996983       0.03333013      -0.01967155      -9.03960154 F F F
 C             21.01284650      11.91879985      15.47997795      -0.00008344       0.00026758       0.00008097      -0.00999897      -0.00646256       0.01677779      -9.16596164 F F F
 C              9.47023649       6.18752586      12.22601314      -0.00024662      -0.00074086       0.00018701       0.02037041       0.05491385      -0.02491488      -9.16620297 F F F
 C             18.75886115       8.50616743       6.99750930      -0.00045407       0.00005621      -0.00019984       0.01512212      -0.00203373      -0.01373935      -9.09548488 F F F
 C              6.61014308       5.73738180       5.67156389      -0.00018282      -0.00035036      -0.00039920       0.00187274      -0.03395469      -0.01683186      -9.15505630 F F F
 C              5.65985337      15.05352854      14.10013598      -0.00007686       0.00016849       0.00015568      -0.00901546      -0.00347909      -0.00783514      -9.14831689 F F F
 C             16.30873977       1.99709954      17.06610167      -0.00013859      -0.00003019      -0.00020778      -0.01336363       0.00262072      -0.00071163      -9.05209348 F F F
 C             18.22043889       0.84523802       4.48610254      -0.00000035      -0.00028007      -0.00002825       0.00760220       0.03620549      -0.00687318      -9.29796171 F F F
 C             20.44007857      14.23446516       3.08823788       0.00011951      -0.00011168      -0.00001771       0.01307513       0.01344427       0.02327634      -8.96103825 F F F
 C             16.12770681      18.01050800      15.65822919      -0.00020418      -0.00041581      -0.00014062      -0.00798655       0.01182018      -0.00062237      -9.19157378 F F F
 C             17.47741436      15.95049667       6.66476365      -0.00022585      -0.00042419       0.00001118      -0.00543715      -0.00438567       0.00265442      -9.24188970 F F F
 C              5.23197238       9.57190482      13.24837967      -0.00046579       0.00019308       0.00006492       0.00622141       0.00646380      -0.01257900      -9.19184747 F F F
 C             17.32336481       7.21103705       8.62837543       0.00002295       0.00026238      -0.00010793       0.02076811      -0.02181889      -0.01044440      -9.04062917 F F F
 C             20.31979653       9.63338153      16.28152765      -0.00081266       0.00041129       0.00025535      -0.03075839       0.01286284       0.01606509      -9.17716513 F F F
 C              5.86173989       1.30191278      11.63630141      -0.00015816      -0.00012848       0.00001519      -0.02400384       0.03741758       0.00053192      -9.06438262 F F F
 C              5.35034132      10.63462636      15.43701333      -0.00078818      -0.00004268      -0.00011291      -0.00832018      -0.00037474      -0.00929775      -9.27734059 F F F
 C             12.03623709      18.05367583       0.47398538       0.00003701       0.00002682      -0.00003663      -0.01409051      -0.05145219      -0.01276790      -9.34871586 F F F
 C              4.35794110       0.95264018       9.14024230      -0.00003880      -0.00034000      -0.00019428      -0.00983479      -0.03887058       0.00120754      -9.13423312 F F F
 C             11.44304969      17.99374763      14.16675777      -0.00015392       0.00063036      -0.00020301      -0.00314029      -0.00355071       0.01182533      -9.26140756 F F F
 C              8.39304795       1.35940413       6.53215114      -0.00002507      -0.00019165       0.00009333      -0.00765890       0.02377387       0.01563588      -9.15432017 F F F
 C              5.88881270      15.61610270      19.07766915      -0.00006866      -0.00000242      -0.00002985       0.02831021       0.01182019       0.00825557      -9.13072233 F F F
 C              4.77771428       8.41665088      11.14525622      -0.00036298       0.00015016       0.00012514      -0.01753499      -0.01656833       0.01076142      -9.25034735 F F F
 C              7.58011763      16.73228307       1.39108696      -0.00011177      -0.00011474      -0.00005970       0.02141136       0.01245532      -0.00527823      -9.08213236 F F F
 C             14.19743737       5.32032094       7.99515682       0.00018927       0.00029840      -0.00027759       0.00071393      -0.01590739       0.00168396      -9.25391935 F F F
 C             18.86260692       1.01094147      10.42771676       0.00033681      -0.00059578       0.00016697       0.02179836       0.00523673       0.00866817      -9.13236759 F F F
 C             16.67983970      17.14365069       1.95827197       0.00006136       0.00014321       0.00011067      -0.00558685      -0.02017463      -0.00378416      -9.30933848 F F F
 C              7.10636303      17.35062785       7.66682727       0.00025088      -0.00059702       0.00011873       0.02056436      -0.01964348       0.01308949      -9.20397945 F F F
 C             11.80605789       5.74691732      19.39997344       0.00003741       0.00002253      -0.00009080      -0.00005194       0.00255940       0.02229162      -9.28029045 F F F
 C              1.95348752       0.52586177       5.63723546       0.00005263       0.00109446      -0.00008889      -0.00198063       0.00051873      -0.01906239      -9.13182466 F F F
 C             10.28369373      18.39543755      18.11986865       0.00002566       0.00008750       0.00003672      -0.00517583       0.00833489      -0.00170400      -9.03749119 F F F
 C              5.46993928      14.49627125      15.40550085       0.00009050       0.00006774       0.00011615      -0.00569673      -0.00521299      -0.00642076      -9.11090522 F F F
 C              7.86701346       7.62242501      16.81023334      -0.00034501      -0.00014525      -0.00007640       0.02097720       0.01399954      -0.00599803      -9.14968133 F F F
 C             11.57749670       1.92394973      12.89673949      -0.00004736      -0.00091936       0.00009711      -0.00888718       0.03425448      -0.00235699      -8.99736212 F F F
 C              7.20510374       7.30124013       0.71559837       0.00023170       0.00038696      -0.00022850      -0.00118744       0.00703952      -0.00002984      -9.25439397 F F F
 C              4.49955533       1.17207369      12.24541833      -0.00003576      -0.00047307       0.00003997      -0.01807977       0.03660437       0.00709375      -9.14029575 F F F
 C             17.97835748      15.79364010       9.08660478       0.00021919      -0.00022140      -0.00012899       0.01899476       0.02559195      -0.00953583      -9.15982993 F F F
 C             19.68877578      10.69105083       7.73321599      -0.00005695      -0.00025959      -0.00006318       0.02158850      -0.01468689       0.00005222      -8.83880986 F F F
 C             17.21814926       7.28123895      10.04982883      -0.00014149       0.00053775      -0.00013751       0.00749582      -0.02784555      -0.00534539      -9.07781019 F F F
 C             10.48836966       2.00411015      13.99191035      -0.00012253      -0.00079941       0.00023557      -0.00623151       0.02440459       0.00538986      -8.97861054 F F F
 C             18.94825174      14.96219078       4.92535758       0.00004932      -0.00001601       0.00008155       0.02043826       0.02874721       0.01996718      -9.10700825 F F F
 C              1.79400664       0.08502359       1.12772370       0.00008594       0.00052429       0.00021738       0.00838837      -0.03410820      -0.03028268      -8.93518422 F F F
 C             13.02882059      17.40246834       5.17112839      -0.00015006      -0.00049721      -0.00002372      -0.01081079      -0.02547317      -0.01700383      -9.29260487 F F F
 C             12.56360373       1.67186889      10.47260060       0.00002967      -0.00006197      -0.00002549       0.00592779       0.01383183      -0.00759203      -9.28564750 F F F
 C             18.64233149       0.82085241       8.12207206       0.00005478      -0.00082745       0.00012537       0.02821617       0.02951261      -0.00643657      -9.09712551 F F F
 C             10.19067142       5.27191928       9.66626247      -0.00013587      -0.00069983       0.00023469      -0.00450345      -0.03384418       0.00813946      -9.28259022 F F F
 C              6.46200591       5.62889369       9.38942114      -0.00038402      -0.00017477      -0.00006075       0.02023013       0.03262779      -0.01876696      -8.81155183 F F F
 C             19.21863731      16.08912479       1.24368626       0.00003417      -0.00003661       0.00013856       0.00246479      -0.00121493       0.00908160      -9.22639462 F F F
 C              6.51481660       1.66786526      17.56186659      -0.00011226       0.00009255       0.00011831       0.01710289      -0.03035595       0.00162603      -9.21142933 F F F
 C              3.55167376      11.42472855       3.70829994       0.00023284       0.00011902       0.00005637      -0.00020829      -0.00167262       0.03199138      -9.07683006 F F F
 C              8.13993753       1.84837926      15.12532456      -0.00016012       0.00011401       0.00021675       0.00438133      -0.00141775       0.00481056      -9.27628223 F F F
 C             18.79940560      15.46764294      10.18461146       0.00044214      -0.00010438      -0.00025408       0.02484617       0.01997006      -0.01014892      -9.15563217 F F F
 C              5.38960246       7.28540831       4.08208797       0.00000580      -0.00014181      -0.00030725      -0.00451414      -0.02550840      -0.00456919      -9.27861772 F F F
 C             17.66226313       1.11127965       2.04012426       0.00005213      -0.00016410      -0.00017838      -0.00383428      -0.01346038      -0.00316376      -9.26214980 F F F
 C             20.24844062      12.26920029      10.47335503       0.00015692      -0.00012843       0.00012179       0.00275561      -0.02174260       0.02716503      -9.05556778 F F F
 C             13.98516047      17.25348503       6.21092168      -0.00014618      -0.00041827      -0.00001879      -0.00152514       0.00187394      -0.01724701      -9.30515049 F F F
 C             12.55545152       6.20093284      15.74329855       0.00002701      -0.00000404      -0.00004673       0.00159638      -0.04135262       0.02125138      -9.16217883 F F F
 C             18.52503118       7.75891528       5.82071185      -0.00066451       0.00017874      -0.00024832      -0.01640490       0.01867866      -0.01932971      -9.06340790 F F F
 C              6.62801130      16.62915200       5.36589653       0.00020636      -0.00013579       0.00003345      -0.00901033       0.01021286       0.00342467      -9.24560648 F F F
 C              4.28262956      10.69019120       2.71024494       0.00065067       0.00019887       0.00023264      -0.02191201      -0.00439233       0.02138969      -9.01158938 F F F
 C             10.95621874       1.42834440       3.97279939       0.00000029       0.00016253       0.00007986      -0.00198828      -0.00820211       0.01326619      -9.01012202 F F F
 C             18.29038589       8.19521602       8.24064203       0.00007113       0.00009334      -0.00008915       0.03410593      -0.02441569       0.00601791      -9.12469108 F F F
 C              5.05769622       7.40859510      10.19247111      -0.00004219       0.00035762      -0.00006860      -0.02909340      -0.02967581       0.02165684      -9.20080070 F F F
 C             10.09812012      17.55024451       2.00710237       0.00001177      -0.00042492      -0.00008640      -0.01747891       0.01618769      -0.00174820      -9.14328400 F F F
 C              3.74485999      10.59421281      11.64157646      -0.00060466       0.00014213       0.00038469       0.00386877       0.00821835      -0.03000272      -9.12225791 F F F
 C             18.15949722       8.21689416      10.53689289       0.00052128      -0.00019984      -0.00005186      -0.03785081       0.02016397       0.00217520      -9.01019406 F F F
 C             16.74697716       5.40576959       3.67411132      -0.00017155      -0.00024488      -0.00015075       0.03202394      -0.03167223      -0.02727705      -8.79606907 F F F
 C             20.52505011      12.95839560      11.75805828       0.00038976       0.00010408      -0.00004533       0.00027506      -0.01446699       0.02337778      -9.10594863 F F F
 C              7.48904350      17.25575679       0.11853385      -0.00010972       0.00006571       0.00003323       0.01766398       0.02196854       0.00010126      -9.01732390 F F F
 C             16.77238469      16.49933388       9.35811959       0.00012566      -0.00028292      -0.00009303       0.00541162       0.00745636      -0.00662699      -9.26815049 F F F
 C             13.09343511       5.47936422       0.15916935      -0.00005482       0.00030134       0.00009822       0.00285867      -0.02258116       0.00244554      -9.29561802 F F F
 C              6.50076102      15.77426562       1.74470504      -0.00026866       0.00015558      -0.00007337       0.03709027       0.00068406       0.00196847      -9.12008793 F F F
 C             14.27954151       5.74102671      19.16361038      -0.00008688       0.00061811       0.00022929       0.00496340      -0.00213403      -0.00482892      -9.28348934 F F F
 C             20.93398624       0.72308249       8.88021095       0.00010302      -0.00069272      -0.00001783      -0.00009051      -0.02956516       0.00292405      -9.20622978 F F F
 C              8.99400950       1.83884028      13.89561818      -0.00014492      -0.00038439       0.00022707       0.00170870       0.00983685       0.00279194      -9.13318693 F F F
 C              0.36496006      12.94784911      19.62639288       0.00064307      -0.00003858      -0.00002307      -0.00493757       0.00991293       0.00999531      -9.04302221 F F F
 C             20.48530601      14.25235482      14.76315836       0.00069421       0.00038738      -0.00016996      -0.00389588      -0.00675736      -0.00078883      -9.02838734 F F F
 C              5.50342564       6.60415484       5.36938004      -0.00008089      -0.00020990      -0.00033165      -0.00147743      -0.02983126      -0.01535844      -9.26024353 F F F
 C              3.40758169      13.90859861      10.49059492       0.00061058      -0.00003550      -0.00038534       0.03135770      -0.01758913      -0.05041689      -8.94120161 F F F
 C              4.91667519      13.11066987      19.28636089       0.00053132      -0.00011952      -0.00009192      -0.02480043       0.03377985       0.01912328      -9.01569174 F F F
 C             20.74792028      12.30916608      12.98664571       0.00041097       0.00021275       0.00001591       0.01018382      -0.01564546       0.02457983      -8.93279220 F F F
 C             14.34631102      18.23024844      17.29587465      -0.00008638       0.00033371      -0.00021245      -0.00957723       0.03497119       0.00892189      -9.31750841 F F F
 C             19.94607164      10.86882767      10.41833981       0.00081892      -0.00030665       0.00000582       0.00390147      -0.01388125       0.02477888      -8.94478821 F F F
 C             20.75580616      12.88077020       3.48659125       0.00063116       0.00010126       0.00031141      -0.00063917       0.00544600       0.00746345      -8.99211720 F F F
 C              3.71650353       0.77024283       7.85060517      -0.00002743      -0.00002916      -0.00020891       0.00041978       0.02232576      -0.01802629      -9.08591046 F F F
 C              7.11198272       7.84260881      19.16657980       0.00015105       0.00050237      -0.00014787       0.01297144       0.02527747       0.00252642      -9.24064392 F F F
 C             18.76336444       8.94739604       9.39337380       0.00066812      -0.00029074      -0.00004546      -0.00310307      -0.00083752       0.00173890      -9.02636236 F F F
 C              0.21899321       1.02373175      16.13059616       0.00013198       0.00034899       0.00015815      -0.00153369      -0.02229546       0.01730728      -9.33252082 F F F
 C              5.75244558      17.14477854       7.98243839       0.00024907      -0.00011880       0.00006064       0.02747450      -0.00909156       0.01110352      -8.75790289 F F F
 C             18.54926928      15.89228792      11.56453869       0.00030562      -0.00016542      -0.00024994       0.00406084       0.00817303      -0.00808449      -9.10468912 F F F
 C              3.43319245      14.45093249       7.21104610       0.00037284      -0.00003910      -0.00000492       0.01649448       0.01452349       0.00535394      -9.08893509 F F F
 C              5.83923513       5.65344735       8.07499331      -0.00013668       0.00007133      -0.00026917       0.05359680       0.09837038      -0.01112986      -8.78825643 F F F
 C             15.23941467       6.31152532      13.05505251       0.00011754       0.00007173      -0.00010273      -0.01328804      -0.00082583       0.02799163      -9.06602590 F F F
 C             14.38119162      17.76588100       1.22972191      -0.00001241      -0.00002445       0.00000355      -0.00854048       0.00212788      -0.00051628      -9.33560500 F F F
 C              9.30149357      17.26611079       4.68532147      -0.00014639       0.00026253      -0.00003788      -0.01033375      -0.03262325      -0.00027919      -9.27088462 F F F
 C              7.83412178       1.41926490       2.87558378      -0.00003832      -0.00020230       0.00012530       0.01483774      -0.00821170       0.00760008      -9.21232178 F F F
 C              5.38771068      16.82518348       9.32881785       0.00017891       0.00001075       0.00004889       0.01051377       0.02964584       0.01096719      -8.83849678 F F F
 C             17.34490559       1.02229548       8.59708357       0.00017583      -0.00015784       0.00016090       0.01772279      -0.04159124      -0.00152032      -9.07871745 F F F
 C             19.92311825      12.62590636       5.85150138      -0.00026495      -0.00017401       0.00009460      -0.01732237      -0.00737337      -0.00903586      -8.99266265 F F F
 C             19.19539101       8.44441692       4.75506890      -0.00074409       0.00025357      -0.00016465      -0.00665569       0.00970747      -0.01847356      -9.19380115 F F F
 C             17.00444633       1.80477299      14.78223771       0.00003965      -0.00004699       0.00011117      -0.01234987      -0.00163155       0.00767653      -9.22346357 F F F
 C              4.20344533      15.06483939      10.51581395      -0.00008311       0.00031541      -0.00005979      -0.02055870       0.01815272      -0.01930470      -9.09660242 F F F
 C              5.08940327      10.86063304       0.38921411       0.00055529       0.00017250       0.00008162      -0.02286733       0.02263726       0.01838801      -9.03422722 F F F
 C             10.11624846       1.69944451      10.79736923      -0.00011861      -0.00048764       0.00000664      -0.01266661      -0.00466075       0.00396588      -9.18003420 F F F
 C             18.92436323       0.74606640       6.79157496       0.00000200      -0.00037466       0.00006859       0.02015967       0.04452644      -0.01197930      -9.15184698 F F F
 C              2.69058524       9.77436922       5.37514596       0.00012814       0.00030206      -0.00000967      -0.04071743      -0.01216207      -0.01635841      -8.81014090 F F F
 C              5.83411040      15.34772729      16.53240122       0.00012708      -0.00003497       0.00008294       0.00365772      -0.00286546      -0.00052186      -9.29670620 F F F
 C              6.81431496       1.47400409      12.71475980      -0.00019118       0.00016799       0.00005053      -0.01271901       0.03340085      -0.00393886      -9.19036418 F F F
 C             21.11037112      10.60837161       0.55397672      -0.00013026       0.00017144       0.00020757      -0.03166008       0.02340337      -0.00789629      -9.15193210 F F F
 C             18.37968201       6.93551661       3.06557802      -0.00066679       0.00028151      -0.00006695      -0.03035159       0.03077132      -0.02457572      -9.06534563 F F F
 C             20.81826807      12.89444817      14.38474764       0.00052452       0.00031237      -0.00004480      -0.00394143      -0.01234902       0.01711551      -9.07138413 F F F
 C              3.42260162       0.65795640       5.35084232       0.00004362       0.00072650      -0.00012646       0.00165825       0.02247507      -0.02341103      -9.08273722 F F F
 C             15.76942075      16.94109594       4.59560518      -0.00008847      -0.00002935       0.00007030      -0.01189630      -0.01247788      -0.01760337      -9.27674985 F F F
 C             15.38624371       1.63957292       1.36643089       0.00005067       0.00048975      -0.00023569       0.00067514      -0.01580137      -0.00569053      -9.33149955 F F F
 C             15.53623491       5.80601212       0.09230271      -0.00014928       0.00036448       0.00022160       0.00573856       0.01233593      -0.02274394      -9.25736281 F F F
 C              4.82725720      13.75566220      18.03791614       0.00019633      -0.00007903       0.00000705      -0.02766874       0.03238624       0.00853593      -8.60626391 F F F
 C             15.55481664       5.37229132       5.85587539       0.00000709       0.00000442      -0.00018972       0.00894430       0.01314890      -0.02179398      -9.25552877 F F F
 C             20.94318836      14.45720453       1.71710661      -0.00004326      -0.00030825      -0.00008636      -0.00780346       0.00712386       0.01273890      -8.83163919 F F F
 C             11.99162446       4.84403786       2.26762053      -0.00014494      -0.00071863      -0.00021403       0.00949792       0.01826728       0.01677352      -9.23472875 F F F
 C             19.15977614      14.30681439       7.33317914      -0.00004835      -0.00018122       0.00005787       0.01002957      -0.01398389       0.00768034      -9.03954495 F F F
 C              2.41569455      12.15316806       7.10258964      -0.00017114       0.00010594      -0.00006363       0.02790933      -0.00116589      -0.01193981      -9.10431211 F F F
 C              8.29821888       6.44765499       1.01057458       0.00008371       0.00009921      -0.00033695      -0.01376838      -0.01364138       0.00000514      -9.27465118 F F F
 C             10.53130652       2.49576525      17.79215782      -0.00024724      -0.00010953       0.00023609      -0.01176779      -0.05259876       0.02434278      -9.00736730 F F F
 C              8.88957163      17.35451286       6.02884946       0.00005805      -0.00006571       0.00004149      -0.00882628      -0.00522159      -0.00416208      -9.28105943 F F F
 C              8.79428951       7.11946223      15.84551564      -0.00042066      -0.00055125       0.00003297       0.01607998      -0.00891985      -0.00355905      -9.34885437 F F F
 C             11.01701847      18.10125615      15.49434824      -0.00011695       0.00021710      -0.00013626      -0.00841740       0.04477262       0.00702665      -9.32440193 F F F
 C             12.90989714       5.16509403       8.67199828       0.00013567       0.00023798      -0.00018167      -0.00072020      -0.02227261       0.00991843      -9.28492859 F F F
 C              2.38361154       0.86944284      17.31688000       0.00002012      -0.00039992       0.00005522       0.00411796       0.01951784       0.00161249      -9.23851746 F F F
 C              3.74557211      12.84176045       3.85413897       0.00034984       0.00002353       0.00018297       0.02062882      -0.00809661       0.04078196      -9.06154339 F F F
 C             16.71067408       6.39631837      19.25592786       0.00006755      -0.00000236       0.00027245       0.00387241       0.02347875      -0.02069675      -9.05674961 F F F
 C              8.44283842       2.07593012      18.92512612      -0.00013140      -0.00007878       0.00022541      -0.00866232       0.03183351       0.02607073      -9.11736378 F F F
 C             14.66607259       2.14987895      15.16845465      -0.00016057      -0.00048893      -0.00010026      -0.01705645      -0.01616070      -0.00579395      -9.26756091 F F F
 C              8.37066604       5.83772464       2.27785981      -0.00007502      -0.00029789      -0.00052630      -0.00036781      -0.00996052       0.00350428      -9.22974876 F F F
 C              8.54820177       1.49776621       9.01609032      -0.00026397       0.00023963       0.00003836      -0.02088783      -0.00311558       0.00202269      -9.15737979 F F F
 C              4.49491286      10.70549177      12.82040579      -0.00055065       0.00025384       0.00028694       0.00147620       0.00844295      -0.02471316      -9.21168095 F F F
 C             16.44981550       6.36596073       7.91496998       0.00044714      -0.00021545      -0.00014149      -0.01512261       0.02606082      -0.02418208      -9.15177781 F F F
 C             12.74246739      17.62256717      10.19287260       0.00010309       0.00047769      -0.00015902      -0.00630518       0.00525960      -0.00433464      -9.31921222 F F F
 C             10.86658692       5.84350091      11.84569347      -0.00006549      -0.00019129       0.00008777       0.02132063       0.04804685      -0.01848452      -9.18402858 F F F
 C             19.72565181       9.68834125       5.24395145      -0.00054928       0.00011967      -0.00008855       0.01742922      -0.00750879      -0.00768167      -9.07293391 F F F
 C             12.09107644       4.47883026       3.62399710      -0.00005910      -0.00047905      -0.00010244       0.01062991       0.04682708       0.01556132      -9.06822152 F F F
 C             19.94632851      13.26731699       9.48804262      -0.00006392      -0.00033146       0.00005757      -0.01035790      -0.03656481       0.01060942      -9.06194806 F F F
 C             12.71605154       5.45832073      10.07464198       0.00009554       0.00032796      -0.00023804      -0.00641770       0.00597425      -0.00181328      -9.10569815 F F F
 C             13.90305456       1.65168324      10.99688647       0.00014391       0.00004217      -0.00001257       0.01774164       0.00112519      -0.01693304      -9.26343612 F F F
 C             11.63001870      18.36287499      17.85256950       0.00001331       0.00017366      -0.00009340      -0.00435132       0.01473085       0.00142592      -9.15009076 F F F
 C             12.01548754      18.28451739      16.50518308      -0.00008889       0.00032575      -0.00018443      -0.00736004       0.04726360       0.00476913      -9.30391375 F F F
 C             11.77078808      17.62503145       9.15914761       0.00005313       0.00018521      -0.00006759       0.00147621      -0.00139945      -0.00896494      -9.30547090 F F F
 C             18.85975548       7.73527501       0.07730381       0.00042341      -0.00032399       0.00032658       0.03299244      -0.02623799      -0.01540016      -9.12501731 F F F
 C             17.86392268      15.82235097       5.29883908      -0.00009905      -0.00014070       0.00005749       0.00216753       0.01139776       0.00381860      -9.25097087 F F F
 C             16.60207596       6.10105123       6.49555172       0.00025350      -0.00038384      -0.00015816      -0.00831812       0.03185313      -0.02599488      -9.08476823 F F F
 C              2.28303548       0.20852849       2.49501932       0.00021812       0.00013210       0.00015211       0.01016152       0.02713219      -0.04082052      -9.05633051 F F F
 C             12.84339294      18.01675740      13.86613645      -0.00011056       0.00051460      -0.00034069      -0.00725137      -0.04246452       0.01495724      -9.31219663 F F F
 C             14.35149055       5.06835624       6.57371762       0.00000946       0.00030041      -0.00020327       0.00952639       0.00846084      -0.00868828      -9.25563476 F F F
 C             13.39375873       1.34909644       6.74667072       0.00020900       0.00048867      -0.00014315       0.00442072       0.04622871      -0.00257770      -9.10614135 F F F
 C              9.26393941       6.71971700      18.55601084       0.00019702       0.00050280      -0.00006203       0.00952983       0.00605995       0.00504007      -9.22458472 F F F
 C             19.14758165       8.06358782       3.40412658      -0.00040321       0.00010736      -0.00005665      -0.01380165       0.01363773      -0.02040891      -9.03194540 F F F
 C             11.16517197       1.62788985       2.56124613      -0.00004652      -0.00005650       0.00011210       0.00883756      -0.00672394       0.01734078      -9.25907547 F F F
 C              5.69112565       9.56100063      14.57051029      -0.00048410       0.00002298      -0.00002461      -0.00020559      -0.00340175      -0.00974532      -9.09410269 F F F
 C             19.85936780       0.45492270       2.75972806       0.00003080      -0.00037288       0.00009792      -0.00150956      -0.02197151      -0.01064711      -9.14299181 F F F
 C             12.77622266       2.37709579      17.14309783      -0.00033756      -0.00004761      -0.00000002      -0.01761756      -0.03007249       0.00283785      -9.09470008 F F F
 C             19.90853219      16.00018868      18.20317297      -0.00040032      -0.00037551       0.00006031       0.00753409       0.00614956       0.00004009      -9.19523051 F F F
 C              8.34772870      16.93683610       3.66706278      -0.00011137       0.00014587      -0.00009021      -0.01454935       0.01396269      -0.00255838      -9.24128136 F F F
 C             13.63518790       1.53161468       3.06332600       0.00008125      -0.00001301      -0.00020871       0.00109632       0.00220759       0.00419381      -9.23308517 F F F
 C              2.90828677       8.47861736       7.29061777       0.00009087       0.00024512       0.00000898       0.00385450      -0.00461670      -0.00348468      -8.83229156 F F F
 C             12.97903721       1.99091003      13.32705661      -0.00005774      -0.00074980       0.00001284      -0.00456137      -0.01220498      -0.01138737      -9.31225746 F F F
 C             15.46983756       1.76700681      12.91314187       0.00018561      -0.00024464       0.00004949       0.00595813      -0.01611864      -0.00680275      -9.22407837 F F F
 C              8.58203068      17.49279663      11.09603273       0.00003033       0.00009320       0.00007455       0.01219058       0.01036591       0.01062523      -9.26794612 F F F
 C             10.09589576       1.82439280       1.58805517      -0.00007238      -0.00038663       0.00019809       0.00543192      -0.01413833       0.02009295      -9.01056428 F F F
 C              3.82912078       9.43962690      10.81722564      -0.00067057       0.00000973       0.00042454       0.01525539       0.00840897      -0.01909306      -9.25041510 F F F
 C             17.07805467      16.47920189       4.29371815      -0.00003752       0.00004657       0.00011200      -0.01399709      -0.02567989      -0.01005220      -9.27703807 F F F
 C             13.46352829      17.44988475       3.84047611      -0.00008385      -0.00000216       0.00001420      -0.01646452      -0.00077816      -0.01584296      -9.30180934 F F F
 C             20.61488772       1.14982204      14.90346616       0.00024688       0.00087976       0.00014958      -0.00633840      -0.02244101       0.02717671      -9.06336118 F F F
 C              9.54503603       5.11207259       2.55616025      -0.00018421      -0.00058767      -0.00045458       0.00089215      -0.00759662       0.01559893      -9.15429883 F F F
 C              8.78974320       1.63850621      11.35261503      -0.00018681      -0.00018183       0.00006411      -0.01454367      -0.00758176       0.00484608      -9.10011529 F F F
 C              6.37461008       1.21807401       7.83060364      -0.00015429       0.00010035      -0.00008590      -0.00391086      -0.06725668      -0.00153370      -9.41906011 F F F
 C              4.68990615      15.13583459       5.04521944       0.00039163      -0.00013481       0.00013792       0.01640629      -0.01306121       0.01287252      -9.22999599 F F F
 C             21.13006115      13.64105358      17.21784843       0.00012816       0.00014756      -0.00006732      -0.01279176      -0.00672632       0.00210681      -9.10065146 F F F
 C              9.76971167      18.26487454      19.42468419       0.00004103       0.00008010       0.00005355       0.00058228      -0.01894689      -0.00933049      -9.02533722 F F F
 C              6.21296007      15.66050880       3.12994013      -0.00013517       0.00026271      -0.00007685       0.01996612      -0.01402217       0.00296539      -9.11007007 F F F
 C             19.68670187      13.19884155       8.12568479      -0.00059765      -0.00044735       0.00015612       0.00995279      -0.03238074       0.00355578      -9.00334465 F F F
 C              6.17203753       8.88302499      18.86052347      -0.00007086       0.00028151      -0.00020110       0.00095344       0.01804076       0.00688183      -8.99849399 F F F
 C             14.40421843       5.02812107       2.21326848      -0.00021730       0.00011643       0.00003413       0.01849606      -0.01876034      -0.01776053      -9.29103616 F F F
 C              6.26451892       1.12648044       5.30882760       0.00002485      -0.00017430      -0.00002648       0.01128885       0.00167920      -0.01039658      -9.12235048 F F F
 C              2.43923041       0.44979517      19.74869785      -0.00002717       0.00033999       0.00012488      -0.00155114       0.01417177      -0.01960657      -9.10049922 F F F
 C              5.64144233       1.05401595       6.57221606      -0.00001112       0.00003137      -0.00009606      -0.00171357      -0.04146939      -0.01453795      -9.24681547 F F F
 C             20.07816140      15.77801250      16.76288166       0.00002772       0.00008640       0.00005581       0.00775042      -0.00262817      -0.00823485      -9.09776475 F F F
 C             14.01931635       5.95246214      12.30186745      -0.00000908       0.00064184      -0.00023822      -0.00744478      -0.01164550       0.02211619      -9.12661879 F F F
 C              5.36803181      16.11666052       5.79624066       0.00029831      -0.00012377       0.00010009       0.00671725      -0.00959527       0.01035980      -9.11605307 F F F
 C             17.46691095      17.77586782      15.36726768      -0.00024771      -0.00057501       0.00000914      -0.00568543      -0.00630392      -0.00003782      -8.88106643 F F F
 C             14.10093901       2.26969885      17.55350557      -0.00033760       0.00026559      -0.00013468      -0.01644052       0.03404332      -0.00176500      -8.97073097 F F F
 C             10.61207801      17.97499102       0.73381609       0.00006419      -0.00018584      -0.00002213      -0.01275999      -0.03531223      -0.01511158      -9.20345780 F F F
 C             14.67813750      17.61597969      12.26471153       0.00012023       0.00020011      -0.00026713      -0.01163273      -0.01428851       0.00256434      -9.29600633 F F F
 C             13.23218622       4.64919148       5.82000769      -0.00000160       0.00006566      -0.00009329       0.00574052       0.03127140      -0.00087024      -9.27268360 F F F
 C             12.98021727       5.93811791      13.25878948       0.00002585       0.00073247      -0.00016406       0.00324036      -0.04588803       0.03300869      -9.11907649 F F F
 C             19.87693419      12.06302846       7.25975232      -0.00070957      -0.00035998      -0.00000391       0.00666710      -0.01581876      -0.01281106      -8.84810267 F F F
 C             19.38754748      16.62581881      15.89794243       0.00015233       0.00020634       0.00004505       0.02193318       0.01560362      -0.00873771      -8.89063207 F F F
 C              2.82386955      13.15317747       9.33975260       0.00066261      -0.00007478      -0.00021841       0.00499129      -0.00076532      -0.03065076      -8.96649062 F F F
 C             13.27185065       4.59111569       4.38030659      -0.00009085      -0.00024307      -0.00005815       0.01406238       0.04849310      -0.00042510      -9.22045223 F F F
 C             13.31229164       2.17160157      14.72424333      -0.00016576      -0.00067169       0.00000012      -0.01074692      -0.02309071      -0.00342715      -9.25590475 F F F
 C              9.96058550       1.59196097       9.32025380      -0.00018258      -0.00019717      -0.00004213      -0.01894184      -0.01300058       0.00466150      -9.23442692 F F F
 C             18.84711500      16.83106675      18.68659794      -0.00010276      -0.00012536       0.00011230       0.00721517       0.00568760       0.00582627      -9.21372202 F F F
 C             15.09373820      17.31358263      10.95047945       0.00020240       0.00022991      -0.00021834      -0.01225194      -0.00773614       0.00125733      -9.29652680 F F F
 C              6.08620969       1.44902963      13.90363257      -0.00012285       0.00020997       0.00008461      -0.00154795      -0.00521804       0.00213439      -9.11238961 F F F
 C             18.99760059       8.30175750      14.69888390      -0.00049486       0.00017060       0.00028951       0.00885161      -0.02486347       0.00105025      -9.22120054 F F F
 C              0.07320115      12.27888312      16.85218272      -0.00005948       0.00016435       0.00002661      -0.00292963      -0.00339479       0.01012735      -9.11332731 F F F
 C              3.57464026       7.82350005       6.18351643       0.00051907       0.00061594       0.00006094       0.02959382       0.01966059       0.00279813      -8.87218188 F F F
 C             10.38494812      17.67038354       9.44928752       0.00006599       0.00007917       0.00001844       0.00608318       0.03725034      -0.00239270      -9.31734477 F F F
 C             17.35199959      16.64219914      11.78140793       0.00019968      -0.00025065      -0.00020419      -0.01820562      -0.01875813      -0.00298894      -9.15443465 F F F
 C              3.51741543      13.03068154      11.62390234       0.00024190       0.00024930      -0.00019053      -0.02672540      -0.00211562      -0.02962808      -9.00467432 F F F
 C              2.31991579      10.84019503       7.66098734      -0.00028756       0.00011055      -0.00000213       0.04118587      -0.00066883      -0.02032975      -9.06983475 F F F
 C              6.80989718       5.30003051       7.04368461      -0.00015888      -0.00018813      -0.00021901       0.03155466       0.04576458      -0.00778842      -8.99098503 F F F
 C             20.68193469       0.96331478      17.42782730      -0.00002224      -0.00016187       0.00011818      -0.01051941       0.00371455       0.00894324      -9.25522012 F F F
 C             15.73477725       6.48826523      15.61348704       0.00003938      -0.00024752       0.00028635      -0.00147279       0.03293688       0.00916085      -9.08517125 F F F
 C             17.53379934      16.56936723       2.95913549       0.00004618       0.00014588       0.00015211      -0.01286667      -0.03112705      -0.00781306      -9.25380682 F F F
 C              0.06943531      11.25692955      17.88630411      -0.00044754       0.00018936       0.00010236       0.00116761       0.00146391       0.00916775      -9.19952268 F F F
 C              4.06479006      15.52183801       7.89428194       0.00013493       0.00011335      -0.00003240      -0.00478503       0.03687447       0.00186746      -9.00529660 F F F
 C              4.46315469       8.40039140       3.90120463       0.00031196       0.00016569      -0.00005938      -0.01478968      -0.01729753       0.00273407      -9.11056251 F F F
 C              6.27334676       7.64627626       1.75786674       0.00022866       0.00019765      -0.00021917       0.00085438       0.00719173       0.00597270      -9.22304430 F F F
 C             17.81883440       6.85155003       0.43664503      -0.00004173       0.00012383       0.00025003       0.01088758      -0.00171101      -0.02483204      -8.94798851 F F F
 C              6.45026656       1.46080007       0.32998342      -0.00005905      -0.00015181       0.00007612       0.02176839      -0.03545538      -0.00710749      -9.30927683 F F F
 C             10.34826318       6.50660078      17.64144362       0.00007638       0.00019407      -0.00004388       0.02139328       0.02123930       0.01144526      -9.24125388 F F F
 C              5.59102975       1.00953008       4.04804961       0.00010284      -0.00001622      -0.00003458       0.00355300       0.02324366      -0.01513189      -9.31737246 F F F
 C             10.05503989       2.31709715      16.49921528      -0.00018696       0.00005023       0.00022298      -0.00311136      -0.02312972       0.02366015      -9.21606111 F F F
 C             15.04848205       1.46133341      10.12758925       0.00031225       0.00059366       0.00005191       0.02060767      -0.00504668      -0.01289851      -9.38167448 F F F
 C              8.07039735       7.38821167      18.18099748       0.00012001       0.00046173      -0.00006860       0.01742355       0.02119035       0.00254908      -9.25519303 F F F
 C              6.71325544       1.61505518      15.11779388      -0.00015343       0.00018339       0.00011751       0.00985773      -0.01420296       0.00483263      -9.20767700 F F F
 C             17.88949046      17.09252682      14.15576902       0.00006774      -0.00027815      -0.00005752       0.02138163       0.03842955      -0.01720442      -9.06606566 F F F
 C             13.39860414      18.26163876      16.22806645      -0.00008532       0.00061785      -0.00030680      -0.01071680       0.01772889       0.01052998      -9.30733529 F F F
 C             19.24095421       8.12342150      18.48580963       0.00062062      -0.00062638       0.00027262       0.02817724      -0.01713836      -0.00748001      -9.01689331 F F F
 C             10.95809329       2.23202065      15.37237083      -0.00018199      -0.00048085       0.00018298      -0.00968478      -0.00060648       0.01541699      -9.26432068 F F F
 C             12.97519559      17.82269152       1.49938824      -0.00000669       0.00016853       0.00003954      -0.01117301      -0.01629144      -0.00848318      -9.26947617 F F F
 C             15.19420604      17.95961430      14.60216348      -0.00008873      -0.00008757      -0.00027139      -0.01442667      -0.01484470       0.00667791      -9.27471632 F F F
 C              4.60830713      11.97192122      13.51071493      -0.00052161       0.00036167       0.00016621      -0.01238941       0.00846422      -0.02465582      -9.11729353 F F F
 C              2.56806485      10.66008201       9.05470686      -0.00025434       0.00007901       0.00009091       0.02563219      -0.00083021      -0.02379575      -9.05893705 F F F
 C             20.65358006       1.06393764      12.26311049       0.00037133       0.00023392       0.00005599       0.00126891      -0.03123657       0.02699550      -8.96088171 F F F
 C             14.85124171      17.30240182       3.56955275      -0.00003137       0.00013458       0.00005772      -0.01526546      -0.00207064      -0.01186336      -9.30903369 F F F
 C             12.50088508      17.61641502       2.80415930      -0.00008066       0.00016282       0.00003773      -0.02005935       0.01001702      -0.00892596      -9.31859460 F F F
 C              7.63052982      17.38848275      10.05996237       0.00010701      -0.00022328       0.00008980       0.01859247       0.00463322       0.00856698      -9.24827490 F F F
 C             21.04559194      10.95446303       1.94601689       0.00031525       0.00001290       0.00028815      -0.05287500       0.02632854      -0.01857872      -9.07231542 F F F
 C              9.39186646       6.27139274       0.09240473       0.00013979       0.00014386      -0.00020987      -0.00864235      -0.01783328       0.00365811      -9.24772649 F F F
 C              7.01979322      17.18408089      17.57131832       0.00026764      -0.00026994       0.00006422       0.02243629      -0.00647066      -0.00569532      -9.01969696 F F F
 C             16.22892351      17.73961356      19.39686920      -0.00011513      -0.00036908      -0.00000198      -0.00896349      -0.00963061       0.00476159      -9.28342200 F F F
 C             11.87969693       2.43850676      18.17944317      -0.00021496      -0.00006209       0.00008703      -0.01713747      -0.05940280       0.01008025      -8.94423953 F F F
 C             12.19135823      17.52544994       7.82271137       0.00001666      -0.00035346      -0.00001971      -0.00089290      -0.02460039      -0.01357590      -9.32556172 F F F
 C             18.27383461      15.36219880       7.71307642      -0.00001223      -0.00021250      -0.00004694      -0.00067651      -0.01188288       0.00002785      -9.13209647 F F F
 C              0.26193953      11.58297718      19.26922697       0.00004328       0.00001855       0.00007561      -0.00877123       0.01075179       0.01025292      -9.11623285 F F F
 C             17.30921249       1.80054546      16.16745049      -0.00035443      -0.00041066       0.00024828      -0.02692287      -0.00517152       0.01404311      -9.05532804 F F F
 C             20.56778124      10.09091971      13.96913512      -0.00112458       0.00058134       0.00037435      -0.02631561      -0.01407368       0.02378946      -8.76205747 F F F
 C              6.65277222       7.59394647      12.64887862      -0.00038603       0.00008617      -0.00001870      -0.03263822      -0.04025736       0.02066428      -9.12023865 F F F
 C             12.57674834       1.69996934       2.11176843      -0.00003796       0.00004599      -0.00002086       0.00710990      -0.00531926      -0.00335324      -9.36973035 F F F
 C             12.82608975       6.10302520      17.15579824       0.00007065       0.00018510      -0.00001235       0.00997053      -0.00054100       0.01912186      -9.15890418 F F F
 C             15.64140756      17.61626316      13.29875579       0.00007621      -0.00010277      -0.00023082      -0.01288133      -0.01475708       0.00346773      -9.31433460 F F F
 C              6.32207204      16.92903178      10.35627217       0.00017853      -0.00030224       0.00005434       0.01487008       0.01874031       0.01031810      -9.14081733 F F F
 C             19.41863954      15.08765348       3.56539776      -0.00004828      -0.00020515       0.00002511       0.00913188       0.01366110       0.02034785      -9.13297739 F F F
 C             16.35821311       6.77211663      12.31701870       0.00007413       0.00021258      -0.00015040      -0.02851397       0.01874710       0.02407382      -9.09383812 F F F
 C             15.56958164       1.24087372       5.24592198       0.00019868       0.00038422      -0.00020080       0.00083703       0.03022074       0.00213807      -9.14173129 F F F
 C              4.32642995      13.22122216      12.77260932      -0.00026446       0.00038516       0.00010217      -0.02548943       0.00725444      -0.03440646      -8.98272667 F F F
 C              7.52272627      17.17988773       6.33080677       0.00018271      -0.00038064       0.00009375      -0.00226838      -0.00367316       0.00199025      -9.24654656 F F F
 C             10.91276869      17.77764232      11.82347482      -0.00005859       0.00065380      -0.00009498      -0.00052546       0.01198127       0.00942723      -9.31137051 F F F
 C              8.24247170       1.65060510      12.66080253      -0.00015560      -0.00020433       0.00012144      -0.00838981       0.00654829       0.00086398      -9.14736250 F F F
 C             20.63408079       0.50556360       5.08181934       0.00004050      -0.00007756       0.00004976       0.00482199      -0.04429288      -0.01957781      -9.34663978 F F F
 C             15.00516131       1.49709307       2.73448200       0.00011694       0.00036545      -0.00025399       0.00210662      -0.00481919      -0.00263227      -9.29485618 F F F
 C              1.93735012       0.99984042      12.18097193       0.00022012      -0.00010475      -0.00005711      -0.01085415       0.05143376       0.00770033      -9.18535941 F F F
 C              4.49865629       1.25905874      16.16546779      -0.00003386      -0.00001958       0.00008570       0.01550870      -0.01190124      -0.00027159      -9.30332459 F F F
 C              7.21452603       7.68994421      14.00873572      -0.00036903      -0.00010240       0.00000028      -0.03647522      -0.05908851       0.01520047      -9.13346064 F F F
 C             20.34139882      12.03749676       4.57875884       0.00015419       0.00002473       0.00019457      -0.01971854      -0.00366171      -0.00784099      -8.96425921 F F F
 C             20.22816946      10.61111479       4.27818992      -0.00004592       0.00006803       0.00013245      -0.00200410      -0.00305070      -0.01289039      -9.11632275 F F F
 C             14.10766608       1.81482417      12.40797794       0.00010485      -0.00049185       0.00003757       0.00651979      -0.01968888      -0.00921725      -9.36579919 F F F
 C             21.13290927       0.06054573       2.45761623       0.00023073       0.00018267       0.00022737       0.01279426       0.03379573      -0.02005158      -8.90079554 F F F
 C              2.49533951      12.20021939       5.69102430      -0.00038378       0.00022551      -0.00016115      -0.03228153       0.00851054      -0.00698201      -8.83924183 F F F
 C             14.90081645       6.29655488      14.49784376       0.00017305      -0.00018978       0.00003441      -0.00585555      -0.01882121       0.02872004      -9.08107359 F F F
 C              6.78754690       8.43071814      16.41197387      -0.00042071      -0.00018504      -0.00012783       0.00163117      -0.00151169      -0.00250751      -9.18778305 F F F
 C             12.05029979       1.36021875       6.25700760       0.00016568       0.00045009      -0.00009399      -0.00718972       0.03987676       0.00951266      -9.11854959 F F F
 C             11.22583365      17.51833578       6.78203764       0.00000211      -0.00067561       0.00001503      -0.00599202      -0.02463866      -0.01301624      -9.30269610 F F F
 C              3.16719926       9.44570870       9.54755122      -0.00058875      -0.00003308       0.00031982       0.03060045       0.01758990      -0.01941609      -9.17171655 F F F
 C              2.36431289       0.65043194       8.06546237       0.00005567       0.00039277      -0.00016926      -0.03046750       0.03298682      -0.02254239      -9.00076528 F F F
 C              5.82146600       1.42291099      18.78802343      -0.00004161      -0.00001601       0.00007259       0.02125620      -0.05921784      -0.00588454      -9.28960791 F F F
 C              9.63681380       4.49164854       3.78437505       0.00009106       0.00020241      -0.00006597       0.01879972      -0.00537482       0.01020766      -8.75990613 F F F
 C              3.14389828      13.29726578       5.05780807       0.00017679       0.00008691       0.00004646      -0.01635332       0.01422121       0.00988836      -8.79349975 F F F
 C             20.32061341      15.32089257       0.78678249      -0.00036553      -0.00054577      -0.00006544      -0.02160569      -0.02183120       0.00102918      -9.13043702 F F F
 C             12.33718602       2.30285233      15.72993532      -0.00018888      -0.00048246       0.00001972      -0.01199122      -0.01997008       0.00220781      -9.34360822 F F F
 C              8.05571584      18.12461802      17.80140415       0.00005577      -0.00007027       0.00009250       0.00219113       0.01913937      -0.01140428      -8.64247617 F F F
 C             10.89707201       1.42444852       7.01023999       0.00008010       0.00018535      -0.00004539       0.00323731       0.00814362       0.00853577      -8.98131514 F F F
 C             18.04537297       1.37329735      12.64866894       0.00061649       0.00112220       0.00012614       0.02031530       0.04639358       0.00869184      -9.19806970 F F F
 C             16.73777606       5.53670154       2.22748903      -0.00022287      -0.00012859      -0.00008330       0.01382362      -0.00988011      -0.03452560      -8.86648253 F F F
 C             11.08977330      17.52450724       3.05462521      -0.00010170      -0.00004808      -0.00001619      -0.02048759       0.00581584      -0.00607554      -9.28596664 F F F
 C              5.00957355      15.35867156      11.71441332      -0.00022138       0.00028205       0.00013753      -0.01969825       0.02218274      -0.00753476      -9.26134400 F F F
 C             10.58868682       2.16387464       0.31388698      -0.00012829      -0.00063755       0.00013349       0.00363004      -0.00426257       0.02814208      -9.16124640 F F F
